#   Hz   S  RI   R   50
!
0.000000e+00 3.546514e-02 0.000000e+00 9.643635e-01 0.000000e+00 9.643635e-01 0.000000e+00 3.550902e-02 0.000000e+00
1.000000e+08 3.862550e-02 5.348783e-02 9.611802e-01 -5.594192e-02 9.611802e-01 -5.594192e-02 3.867027e-02 5.348227e-02
2.000000e+08 4.799984e-02 1.059718e-01 9.517377e-01 -1.108731e-01 9.517377e-01 -1.108731e-01 4.804723e-02 1.059604e-01
3.000000e+08 6.327668e-02 1.565036e-01 9.363497e-01 -1.638385e-01 9.363497e-01 -1.638385e-01 6.332834e-02 1.564856e-01
4.000000e+08 8.396503e-02 2.042390e-01 9.155108e-01 -2.139884e-01 9.155108e-01 -2.139884e-01 8.402245e-02 2.042137e-01
5.000000e+08 1.094322e-01 2.484764e-01 8.898581e-01 -2.606163e-01 8.898581e-01 -2.606163e-01 1.094966e-01 2.484425e-01
6.000000e+08 1.389490e-01 2.886791e-01 8.601262e-01 -3.031819e-01 8.601262e-01 -3.031819e-01 1.390215e-01 2.886355e-01
7.000000e+08 1.717366e-01 3.244844e-01 8.270992e-01 -3.413202e-01 8.270992e-01 -3.413202e-01 1.718181e-01 3.244296e-01
8.000000e+08 2.070109e-01 3.556973e-01 7.915670e-01 -3.748352e-01 7.915670e-01 -3.748352e-01 2.071017e-01 3.556298e-01
9.000000e+08 2.440187e-01 3.822749e-01 7.542882e-01 -4.036839e-01 7.542882e-01 -4.036839e-01 2.441193e-01 3.821934e-01
1.000000e+09 2.820662e-01 4.043029e-01 7.159614e-01 -4.279528e-01 7.159614e-01 -4.279528e-01 2.821767e-01 4.042058e-01
1.100000e+09 3.205378e-01 4.219688e-01 6.772067e-01 -4.478312e-01 6.772067e-01 -4.478312e-01 3.206580e-01 4.218547e-01
1.200000e+09 3.589053e-01 4.355353e-01 6.385559e-01 -4.635839e-01 6.385559e-01 -4.635839e-01 3.590349e-01 4.354030e-01
1.300000e+09 3.967311e-01 4.453146e-01 6.004497e-01 -4.755257e-01 6.004497e-01 -4.755257e-01 3.968698e-01 4.451629e-01
1.400000e+09 4.336650e-01 4.516473e-01 5.632409e-01 -4.839998e-01 5.632409e-01 -4.839998e-01 4.338122e-01 4.514750e-01
1.500000e+09 4.694371e-01 4.548838e-01 5.272011e-01 -4.893595e-01 5.272011e-01 -4.893595e-01 4.695922e-01 4.546900e-01
1.600000e+09 5.038494e-01 4.553712e-01 4.925296e-01 -4.919547e-01 4.925296e-01 -4.919547e-01 5.040117e-01 4.551550e-01
1.700000e+09 5.367652e-01 4.534428e-01 4.593641e-01 -4.921215e-01 4.593641e-01 -4.921215e-01 5.369341e-01 4.532035e-01
1.800000e+09 5.680996e-01 4.494118e-01 4.277900e-01 -4.901753e-01 4.277900e-01 -4.901753e-01 5.682742e-01 4.491487e-01
1.900000e+09 5.978094e-01 4.435667e-01 3.978506e-01 -4.864073e-01 3.978506e-01 -4.864073e-01 5.979890e-01 4.432792e-01
2.000000e+09 6.258849e-01 4.361699e-01 3.695557e-01 -4.810820e-01 3.695557e-01 -4.810820e-01 6.260687e-01 4.358576e-01
2.100000e+09 6.523422e-01 4.274568e-01 3.428888e-01 -4.744366e-01 3.428888e-01 -4.744366e-01 6.525295e-01 4.271193e-01
2.200000e+09 6.772168e-01 4.176366e-01 3.178141e-01 -4.666822e-01 3.178141e-01 -4.666822e-01 6.774068e-01 4.172734e-01
2.300000e+09 7.005583e-01 4.068935e-01 2.942814e-01 -4.580047e-01 2.942814e-01 -4.580047e-01 7.007503e-01 4.065044e-01
2.400000e+09 7.224260e-01 3.953887e-01 2.722310e-01 -4.485667e-01 2.722310e-01 -4.485667e-01 7.226193e-01 3.949736e-01
2.500000e+09 7.428857e-01 3.832625e-01 2.515964e-01 -4.385096e-01 2.515964e-01 -4.385096e-01 7.430795e-01 3.828211e-01
2.600000e+09 7.620064e-01 3.706358e-01 2.323078e-01 -4.279557e-01 2.323078e-01 -4.279557e-01 7.622001e-01 3.701680e-01
2.700000e+09 7.798589e-01 3.576130e-01 2.142940e-01 -4.170103e-01 2.142940e-01 -4.170103e-01 7.800517e-01 3.571186e-01
2.800000e+09 7.965136e-01 3.442831e-01 1.974836e-01 -4.057634e-01 1.974836e-01 -4.057634e-01 7.967051e-01 3.437621e-01
2.900000e+09 8.120399e-01 3.307224e-01 1.818069e-01 -3.942921e-01 1.818069e-01 -3.942921e-01 8.122293e-01 3.301747e-01
3.000000e+09 8.265048e-01 3.169954e-01 1.671958e-01 -3.826616e-01 1.671958e-01 -3.826616e-01 8.266915e-01 3.164210e-01
3.100000e+09 8.399728e-01 3.031567e-01 1.535855e-01 -3.709272e-01 1.535855e-01 -3.709272e-01 8.401563e-01 3.025556e-01
3.200000e+09 8.525053e-01 2.892524e-01 1.409138e-01 -3.591356e-01 1.409138e-01 -3.591356e-01 8.526850e-01 2.886245e-01
3.300000e+09 8.641603e-01 2.753210e-01 1.291219e-01 -3.473259e-01 1.291219e-01 -3.473259e-01 8.643356e-01 2.746665e-01
3.400000e+09 8.749926e-01 2.613948e-01 1.181547e-01 -3.355308e-01 1.181547e-01 -3.355308e-01 8.751631e-01 2.607135e-01
3.500000e+09 8.850535e-01 2.475003e-01 1.079601e-01 -3.237774e-01 1.079601e-01 -3.237774e-01 8.852186e-01 2.467924e-01
3.600000e+09 8.943911e-01 2.336597e-01 9.848962e-02 -3.120881e-01 9.848962e-02 -3.120881e-01 8.945502e-01 2.329252e-01
3.700000e+09 9.030500e-01 2.198908e-01 8.969782e-02 -3.004814e-01 8.969782e-02 -3.004814e-01 9.032027e-01 2.191298e-01
3.800000e+09 9.110719e-01 2.062083e-01 8.154252e-02 -2.889722e-01 8.154252e-02 -2.889722e-01 9.112178e-01 2.054209e-01
3.900000e+09 9.184956e-01 1.926239e-01 7.398445e-02 -2.775725e-01 7.398445e-02 -2.775725e-01 9.186341e-01 1.918100e-01
4.000000e+09 9.253570e-01 1.791468e-01 6.698717e-02 -2.662918e-01 6.698717e-02 -2.662918e-01 9.254877e-01 1.783065e-01
4.100000e+09 9.316894e-01 1.657840e-01 6.051686e-02 -2.551377e-01 6.051686e-02 -2.551377e-01 9.318119e-01 1.649175e-01
4.200000e+09 9.375236e-01 1.525411e-01 5.454217e-02 -2.441157e-01 5.454217e-02 -2.441157e-01 9.376374e-01 1.516484e-01
4.300000e+09 9.428881e-01 1.394218e-01 4.903407e-02 -2.332301e-01 4.903407e-02 -2.332301e-01 9.429927e-01 1.385030e-01
4.400000e+09 9.478093e-01 1.264289e-01 4.396566e-02 -2.224837e-01 4.396566e-02 -2.224837e-01 9.479044e-01 1.254840e-01
4.500000e+09 9.523117e-01 1.135639e-01 3.931206e-02 -2.118786e-01 3.931206e-02 -2.118786e-01 9.523968e-01 1.125931e-01
4.600000e+09 9.564178e-01 1.008277e-01 3.505022e-02 -2.014155e-01 3.505022e-02 -2.014155e-01 9.564925e-01 9.983102e-02
4.700000e+09 9.601484e-01 8.822017e-02 3.115881e-02 -1.910949e-01 3.115881e-02 -1.910949e-01 9.602123e-01 8.719777e-02
4.800000e+09 9.635228e-01 7.574089e-02 2.761807e-02 -1.809165e-01 2.761807e-02 -1.809165e-01 9.635754e-01 7.469283e-02
4.900000e+09 9.665588e-01 6.338880e-02 2.440975e-02 -1.708793e-01 2.440975e-02 -1.708793e-01 9.665998e-01 6.231517e-02
5.000000e+09 9.692728e-01 5.116250e-02 2.151691e-02 -1.609823e-01 2.151691e-02 -1.609823e-01 9.693017e-01 5.006339e-02
5.100000e+09 9.716800e-01 3.906025e-02 1.892388e-02 -1.512239e-01 1.892388e-02 -1.512239e-01 9.716964e-01 3.793577e-02
5.200000e+09 9.737944e-01 2.708010e-02 1.661614e-02 -1.416023e-01 1.661614e-02 -1.416023e-01 9.737980e-01 2.593036e-02
5.300000e+09 9.756290e-01 1.521992e-02 1.458024e-02 -1.321157e-01 1.458024e-02 -1.321157e-01 9.756193e-01 1.404502e-02
5.400000e+09 9.771957e-01 3.477406e-03 1.280373e-02 -1.227619e-01 1.280373e-02 -1.227619e-01 9.771724e-01 2.277456e-03
5.500000e+09 9.785057e-01 -8.149800e-03 1.127503e-02 -1.135387e-01 1.127503e-02 -1.135387e-01 9.784683e-01 -9.374689e-03
5.600000e+09 9.795691e-01 -1.966414e-02 9.983441e-03 -1.044439e-01 9.983441e-03 -1.044439e-01 9.795172e-01 -2.091385e-02
5.700000e+09 9.803954e-01 -3.106807e-02 8.919016e-03 -9.547522e-02 8.919016e-03 -9.547522e-02 9.803286e-01 -3.234249e-02
5.800000e+09 9.809932e-01 -4.236406e-02 8.072529e-03 -8.663028e-02 8.072529e-03 -8.663028e-02 9.809112e-01 -4.366307e-02
5.900000e+09 9.813707e-01 -5.355457e-02 7.435419e-03 -7.790681e-02 7.435419e-03 -7.790681e-02 9.812730e-01 -5.487804e-02
6.000000e+09 9.815351e-01 -6.464202e-02 6.999735e-03 -6.930255e-02 6.999735e-03 -6.930255e-02 9.814214e-01 -6.598983e-02
6.100000e+09 9.814935e-01 -7.562878e-02 6.758092e-03 -6.081527e-02 6.758092e-03 -6.081527e-02 9.813633e-01 -7.700080e-02
6.200000e+09 9.812521e-01 -8.651717e-02 6.703627e-03 -5.244278e-02 6.703627e-03 -5.244278e-02 9.811051e-01 -8.791326e-02
6.300000e+09 9.808167e-01 -9.730943e-02 6.829961e-03 -4.418297e-02 6.829961e-03 -4.418297e-02 9.806524e-01 -9.872946e-02
6.400000e+09 9.801927e-01 -1.080077e-01 7.131166e-03 -3.603379e-02 7.131166e-03 -3.603379e-02 9.800108e-01 -1.094515e-01
6.500000e+09 9.793850e-01 -1.186141e-01 7.601726e-03 -2.799328e-02 7.601726e-03 -2.799328e-02 9.791851e-01 -1.200816e-01
6.600000e+09 9.783983e-01 -1.291306e-01 8.236507e-03 -2.005955e-02 8.236507e-03 -2.005955e-02 9.781799e-01 -1.306216e-01
6.700000e+09 9.772367e-01 -1.395591e-01 9.030735e-03 -1.223080e-02 9.030735e-03 -1.223080e-02 9.769994e-01 -1.410734e-01
6.800000e+09 9.759040e-01 -1.499013e-01 9.979962e-03 -4.505329e-03 9.979962e-03 -4.505329e-03 9.756475e-01 -1.514388e-01
6.900000e+09 9.744039e-01 -1.601590e-01 1.108004e-02 3.118489e-03 1.108004e-02 3.118489e-03 9.741276e-01 -1.617196e-01
7.000000e+09 9.727395e-01 -1.703337e-01 1.232712e-02 1.064217e-02 1.232712e-02 1.064217e-02 9.724431e-01 -1.719171e-01
7.100000e+09 9.709138e-01 -1.804270e-01 1.371760e-02 1.806714e-02 1.371760e-02 1.806714e-02 9.705970e-01 -1.820331e-01
7.200000e+09 9.689296e-01 -1.904401e-01 1.524812e-02 2.539472e-02 1.524812e-02 2.539472e-02 9.685918e-01 -1.920687e-01
7.300000e+09 9.667893e-01 -2.003743e-01 1.691555e-02 3.262615e-02 1.691555e-02 3.262615e-02 9.664302e-01 -2.020253e-01
7.400000e+09 9.644952e-01 -2.102308e-01 1.871696e-02 3.976255e-02 1.871696e-02 3.976255e-02 9.641144e-01 -2.119039e-01
7.500000e+09 9.620494e-01 -2.200107e-01 2.064962e-02 4.680497e-02 2.064962e-02 4.680497e-02 9.616465e-01 -2.217056e-01
7.600000e+09 9.594538e-01 -2.297147e-01 2.271098e-02 5.375435e-02 2.271098e-02 5.375435e-02 9.590283e-01 -2.314314e-01
7.700000e+09 9.567101e-01 -2.393438e-01 2.489865e-02 6.061152e-02 2.489865e-02 6.061152e-02 9.562616e-01 -2.410820e-01
7.800000e+09 9.538198e-01 -2.488985e-01 2.721038e-02 6.737724e-02 2.721038e-02 6.737724e-02 9.533480e-01 -2.506581e-01
7.900000e+09 9.507844e-01 -2.583797e-01 2.964407e-02 7.405216e-02 2.964407e-02 7.405216e-02 9.502887e-01 -2.601603e-01
8.000000e+09 9.476051e-01 -2.677876e-01 3.219775e-02 8.063683e-02 3.219775e-02 8.063683e-02 9.470851e-01 -2.695891e-01
8.100000e+09 9.442830e-01 -2.771227e-01 3.486957e-02 8.713172e-02 3.486957e-02 8.713172e-02 9.437384e-01 -2.789448e-01
8.200000e+09 9.408192e-01 -2.863852e-01 3.765777e-02 9.353722e-02 3.765777e-02 9.353722e-02 9.402495e-01 -2.882277e-01
8.300000e+09 9.372146e-01 -2.955753e-01 4.056072e-02 9.985360e-02 4.056072e-02 9.985360e-02 9.366193e-01 -2.974379e-01
8.400000e+09 9.334699e-01 -3.046930e-01 4.357684e-02 1.060811e-01 4.357684e-02 1.060811e-01 9.328488e-01 -3.065755e-01
8.500000e+09 9.295860e-01 -3.137383e-01 4.670465e-02 1.122197e-01 4.670465e-02 1.122197e-01 9.289385e-01 -3.156403e-01
8.600000e+09 9.255635e-01 -3.227110e-01 4.994277e-02 1.182696e-01 4.994277e-02 1.182696e-01 9.248891e-01 -3.246323e-01
8.700000e+09 9.214029e-01 -3.316107e-01 5.328984e-02 1.242306e-01 5.328984e-02 1.242306e-01 9.207013e-01 -3.335511e-01
8.800000e+09 9.171047e-01 -3.404373e-01 5.674458e-02 1.301027e-01 5.674458e-02 1.301027e-01 9.163755e-01 -3.423964e-01
8.900000e+09 9.126694e-01 -3.491900e-01 6.030577e-02 1.358855e-01 6.030577e-02 1.358855e-01 9.119121e-01 -3.511676e-01
9.000000e+09 9.080974e-01 -3.578684e-01 6.397222e-02 1.415789e-01 6.397222e-02 1.415789e-01 9.073116e-01 -3.598641e-01
9.100000e+09 9.033891e-01 -3.664718e-01 6.774279e-02 1.471823e-01 6.774279e-02 1.471823e-01 9.025743e-01 -3.684853e-01
9.200000e+09 8.985446e-01 -3.749994e-01 7.161637e-02 1.526953e-01 7.161637e-02 1.526953e-01 8.977005e-01 -3.770303e-01
9.300000e+09 8.935644e-01 -3.834502e-01 7.559187e-02 1.581175e-01 7.559187e-02 1.581175e-01 8.926905e-01 -3.854982e-01
9.400000e+09 8.884487e-01 -3.918233e-01 7.966824e-02 1.634482e-01 7.966824e-02 1.634482e-01 8.875446e-01 -3.938881e-01
9.500000e+09 8.831977e-01 -4.001176e-01 8.384442e-02 1.686866e-01 8.384442e-02 1.686866e-01 8.822629e-01 -4.021988e-01
9.600000e+09 8.778116e-01 -4.083319e-01 8.811939e-02 1.738322e-01 8.811939e-02 1.738322e-01 8.768457e-01 -4.104291e-01
9.700000e+09 8.722906e-01 -4.164649e-01 9.249212e-02 1.788839e-01 9.249212e-02 1.788839e-01 8.712932e-01 -4.185777e-01
9.800000e+09 8.666350e-01 -4.245151e-01 9.696157e-02 1.838411e-01 9.696157e-02 1.838411e-01 8.656057e-01 -4.266432e-01
9.900000e+09 8.608449e-01 -4.324813e-01 1.015267e-01 1.887026e-01 1.015267e-01 1.887026e-01 8.597833e-01 -4.346242e-01
1.000000e+10 8.549206e-01 -4.403617e-01 1.061865e-01 1.934675e-01 1.061865e-01 1.934675e-01 8.538262e-01 -4.425190e-01
1.010000e+10 8.488623e-01 -4.481547e-01 1.109400e-01 1.981348e-01 1.109400e-01 1.981348e-01 8.477347e-01 -4.503260e-01
1.020000e+10 8.426703e-01 -4.558585e-01 1.157860e-01 2.027032e-01 1.157860e-01 2.027032e-01 8.415091e-01 -4.580433e-01
1.030000e+10 8.363447e-01 -4.634713e-01 1.207234e-01 2.071716e-01 1.207234e-01 2.071716e-01 8.351496e-01 -4.656693e-01
1.040000e+10 8.298860e-01 -4.709913e-01 1.257512e-01 2.115387e-01 1.257512e-01 2.115387e-01 8.286565e-01 -4.732018e-01
1.050000e+10 8.232945e-01 -4.784162e-01 1.308682e-01 2.158033e-01 1.308682e-01 2.158033e-01 8.220302e-01 -4.806389e-01
1.060000e+10 8.165705e-01 -4.857441e-01 1.360733e-01 2.199640e-01 1.360733e-01 2.199640e-01 8.152711e-01 -4.879784e-01
1.070000e+10 8.097146e-01 -4.929728e-01 1.413652e-01 2.240194e-01 1.413652e-01 2.240194e-01 8.083795e-01 -4.952182e-01
1.080000e+10 8.027270e-01 -5.000999e-01 1.467427e-01 2.279681e-01 1.467427e-01 2.279681e-01 8.013560e-01 -5.023560e-01
1.090000e+10 7.956085e-01 -5.071233e-01 1.522044e-01 2.318085e-01 1.522044e-01 2.318085e-01 7.942011e-01 -5.093895e-01
1.100000e+10 7.883595e-01 -5.140404e-01 1.577492e-01 2.355393e-01 1.577492e-01 2.355393e-01 7.869154e-01 -5.163162e-01
1.110000e+10 7.809807e-01 -5.208487e-01 1.633755e-01 2.391587e-01 1.633755e-01 2.391587e-01 7.794996e-01 -5.231335e-01
1.120000e+10 7.734728e-01 -5.275458e-01 1.690819e-01 2.426653e-01 1.690819e-01 2.426653e-01 7.719543e-01 -5.298391e-01
1.130000e+10 7.658367e-01 -5.341290e-01 1.748669e-01 2.460574e-01 1.748669e-01 2.460574e-01 7.642804e-01 -5.364301e-01
1.140000e+10 7.580732e-01 -5.405956e-01 1.807291e-01 2.493334e-01 1.807291e-01 2.493334e-01 7.564788e-01 -5.429040e-01
1.150000e+10 7.501833e-01 -5.469429e-01 1.866666e-01 2.524916e-01 1.866666e-01 2.524916e-01 7.485504e-01 -5.492579e-01
1.160000e+10 7.421679e-01 -5.531680e-01 1.926780e-01 2.555303e-01 1.926780e-01 2.555303e-01 7.404963e-01 -5.554891e-01
1.170000e+10 7.340283e-01 -5.592682e-01 1.987613e-01 2.584478e-01 1.987613e-01 2.584478e-01 7.323176e-01 -5.615947e-01
1.180000e+10 7.257657e-01 -5.652405e-01 2.049149e-01 2.612424e-01 2.049149e-01 2.612424e-01 7.240155e-01 -5.675718e-01
1.190000e+10 7.173813e-01 -5.710820e-01 2.111367e-01 2.639123e-01 2.111367e-01 2.639123e-01 7.155915e-01 -5.734174e-01
1.200000e+10 7.088767e-01 -5.767897e-01 2.174249e-01 2.664560e-01 2.174249e-01 2.664560e-01 7.070469e-01 -5.791286e-01
1.210000e+10 7.002533e-01 -5.823605e-01 2.237774e-01 2.688715e-01 2.237774e-01 2.688715e-01 6.983832e-01 -5.847023e-01
1.220000e+10 6.915128e-01 -5.877916e-01 2.301921e-01 2.711572e-01 2.301921e-01 2.711572e-01 6.896022e-01 -5.901354e-01
1.230000e+10 6.826570e-01 -5.930796e-01 2.366667e-01 2.733114e-01 2.366667e-01 2.733114e-01 6.807057e-01 -5.954249e-01
1.240000e+10 6.736877e-01 -5.982217e-01 2.431990e-01 2.753323e-01 2.431990e-01 2.753323e-01 6.716954e-01 -6.005676e-01
1.250000e+10 6.646070e-01 -6.032146e-01 2.497867e-01 2.772183e-01 2.497867e-01 2.772183e-01 6.625735e-01 -6.055605e-01
1.260000e+10 6.554169e-01 -6.080553e-01 2.564272e-01 2.789677e-01 2.564272e-01 2.789677e-01 6.533420e-01 -6.104003e-01
1.270000e+10 6.461197e-01 -6.127406e-01 2.631181e-01 2.805789e-01 2.631181e-01 2.805789e-01 6.440032e-01 -6.150841e-01
1.280000e+10 6.367179e-01 -6.172674e-01 2.698567e-01 2.820502e-01 2.698567e-01 2.820502e-01 6.345596e-01 -6.196086e-01
1.290000e+10 6.272138e-01 -6.216326e-01 2.766403e-01 2.833802e-01 2.766403e-01 2.833802e-01 6.250136e-01 -6.239707e-01
1.300000e+10 6.176102e-01 -6.258330e-01 2.834662e-01 2.845671e-01 2.834662e-01 2.845671e-01 6.153679e-01 -6.281674e-01
1.310000e+10 6.079098e-01 -6.298657e-01 2.903314e-01 2.856096e-01 2.903314e-01 2.856096e-01 6.056253e-01 -6.321954e-01
1.320000e+10 5.981156e-01 -6.337276e-01 2.972331e-01 2.865062e-01 2.972331e-01 2.865062e-01 5.957888e-01 -6.360519e-01
1.330000e+10 5.882305e-01 -6.374156e-01 3.041682e-01 2.872556e-01 3.041682e-01 2.872556e-01 5.858613e-01 -6.397337e-01
1.340000e+10 5.782578e-01 -6.409269e-01 3.111336e-01 2.878563e-01 3.111336e-01 2.878563e-01 5.758461e-01 -6.432378e-01
1.350000e+10 5.682007e-01 -6.442583e-01 3.181260e-01 2.883072e-01 3.181260e-01 2.883072e-01 5.657465e-01 -6.465614e-01
1.360000e+10 5.580628e-01 -6.474072e-01 3.251423e-01 2.886071e-01 3.251423e-01 2.886071e-01 5.555661e-01 -6.497016e-01
1.370000e+10 5.478476e-01 -6.503707e-01 3.321789e-01 2.887548e-01 3.321789e-01 2.887548e-01 5.453083e-01 -6.526555e-01
1.380000e+10 5.375589e-01 -6.531460e-01 3.392326e-01 2.887493e-01 3.392326e-01 2.887493e-01 5.349770e-01 -6.554204e-01
1.390000e+10 5.272005e-01 -6.557305e-01 3.462998e-01 2.885897e-01 3.462998e-01 2.885897e-01 5.245761e-01 -6.579937e-01
1.400000e+10 5.167765e-01 -6.581216e-01 3.533769e-01 2.882752e-01 3.533769e-01 2.882752e-01 5.141096e-01 -6.603728e-01
1.410000e+10 5.062908e-01 -6.603169e-01 3.604602e-01 2.878049e-01 3.604602e-01 2.878049e-01 5.035816e-01 -6.625551e-01
1.420000e+10 4.957480e-01 -6.623139e-01 3.675461e-01 2.871783e-01 3.675461e-01 2.871783e-01 4.929964e-01 -6.645383e-01
1.430000e+10 4.851522e-01 -6.641105e-01 3.746309e-01 2.863947e-01 3.746309e-01 2.863947e-01 4.823584e-01 -6.663202e-01
1.440000e+10 4.745080e-01 -6.657044e-01 3.817106e-01 2.854537e-01 3.817106e-01 2.854537e-01 4.716721e-01 -6.678985e-01
1.450000e+10 4.638201e-01 -6.670935e-01 3.887813e-01 2.843550e-01 3.887813e-01 2.843550e-01 4.609423e-01 -6.692713e-01
1.460000e+10 4.530931e-01 -6.682761e-01 3.958393e-01 2.830983e-01 3.958393e-01 2.830983e-01 4.501737e-01 -6.704366e-01
1.470000e+10 4.423320e-01 -6.692503e-01 4.028804e-01 2.816837e-01 4.028804e-01 2.816837e-01 4.393711e-01 -6.713926e-01
1.480000e+10 4.315417e-01 -6.700144e-01 4.099006e-01 2.801110e-01 4.099006e-01 2.801110e-01 4.285395e-01 -6.721378e-01
1.490000e+10 4.207273e-01 -6.705670e-01 4.168960e-01 2.783806e-01 4.168960e-01 2.783806e-01 4.176841e-01 -6.726705e-01
1.500000e+10 4.098939e-01 -6.709069e-01 4.238625e-01 2.764926e-01 4.238625e-01 2.764926e-01 4.068099e-01 -6.729896e-01
1.510000e+10 3.990467e-01 -6.710327e-01 4.307959e-01 2.744474e-01 4.307959e-01 2.744474e-01 3.959224e-01 -6.730939e-01
1.520000e+10 3.881912e-01 -6.709435e-01 4.376921e-01 2.722458e-01 4.376921e-01 2.722458e-01 3.850267e-01 -6.729822e-01
1.530000e+10 3.773327e-01 -6.706385e-01 4.445470e-01 2.698883e-01 4.445470e-01 2.698883e-01 3.741284e-01 -6.726539e-01
1.540000e+10 3.664766e-01 -6.701170e-01 4.513565e-01 2.673758e-01 4.513565e-01 2.673758e-01 3.632330e-01 -6.721083e-01
1.550000e+10 3.556286e-01 -6.693786e-01 4.581165e-01 2.647092e-01 4.581165e-01 2.647092e-01 3.523460e-01 -6.713449e-01
1.560000e+10 3.447942e-01 -6.684229e-01 4.648228e-01 2.618898e-01 4.648228e-01 2.618898e-01 3.414731e-01 -6.703635e-01
1.570000e+10 3.339790e-01 -6.672500e-01 4.714713e-01 2.589188e-01 4.714713e-01 2.589188e-01 3.306198e-01 -6.691639e-01
1.580000e+10 3.231887e-01 -6.658598e-01 4.780579e-01 2.557976e-01 4.780579e-01 2.557976e-01 3.197918e-01 -6.677463e-01
1.590000e+10 3.124290e-01 -6.642527e-01 4.845786e-01 2.525277e-01 4.845786e-01 2.525277e-01 3.089950e-01 -6.661110e-01
1.600000e+10 3.017057e-01 -6.624292e-01 4.910294e-01 2.491110e-01 4.910294e-01 2.491110e-01 2.982350e-01 -6.642584e-01
1.610000e+10 2.910244e-01 -6.603899e-01 4.974063e-01 2.455492e-01 4.974063e-01 2.455492e-01 2.875176e-01 -6.621894e-01
1.620000e+10 2.803908e-01 -6.581359e-01 5.037053e-01 2.418443e-01 5.037053e-01 2.418443e-01 2.768486e-01 -6.599048e-01
1.630000e+10 2.698107e-01 -6.556681e-01 5.099226e-01 2.379985e-01 5.099226e-01 2.379985e-01 2.662336e-01 -6.574058e-01
1.640000e+10 2.592898e-01 -6.529880e-01 5.160543e-01 2.340140e-01 5.160543e-01 2.340140e-01 2.556783e-01 -6.546936e-01
1.650000e+10 2.488338e-01 -6.500970e-01 5.220968e-01 2.298934e-01 5.220968e-01 2.298934e-01 2.451886e-01 -6.517699e-01
1.660000e+10 2.384483e-01 -6.469969e-01 5.280464e-01 2.256391e-01 5.280464e-01 2.256391e-01 2.347700e-01 -6.486363e-01
1.670000e+10 2.281388e-01 -6.436895e-01 5.338995e-01 2.212538e-01 5.338995e-01 2.212538e-01 2.244281e-01 -6.452949e-01
1.680000e+10 2.179109e-01 -6.401771e-01 5.396525e-01 2.167404e-01 5.396525e-01 2.167404e-01 2.141685e-01 -6.417477e-01
1.690000e+10 2.077701e-01 -6.364619e-01 5.453021e-01 2.121017e-01 5.453021e-01 2.121017e-01 2.039967e-01 -6.379971e-01
1.700000e+10 1.977217e-01 -6.325466e-01 5.508451e-01 2.073409e-01 5.508451e-01 2.073409e-01 1.939180e-01 -6.340457e-01
1.710000e+10 1.877710e-01 -6.284337e-01 5.562781e-01 2.024612e-01 5.562781e-01 2.024612e-01 1.839378e-01 -6.298962e-01
1.720000e+10 1.779233e-01 -6.241263e-01 5.615983e-01 1.974658e-01 5.615983e-01 1.974658e-01 1.740613e-01 -6.255515e-01
1.730000e+10 1.681836e-01 -6.196274e-01 5.668024e-01 1.923582e-01 5.668024e-01 1.923582e-01 1.642936e-01 -6.210148e-01
1.740000e+10 1.585570e-01 -6.149403e-01 5.718879e-01 1.871418e-01 5.718879e-01 1.871418e-01 1.546397e-01 -6.162894e-01
1.750000e+10 1.490482e-01 -6.100685e-01 5.768519e-01 1.818203e-01 5.768519e-01 1.818203e-01 1.451045e-01 -6.113787e-01
1.760000e+10 1.396621e-01 -6.050156e-01 5.816918e-01 1.763974e-01 5.816918e-01 1.763974e-01 1.356927e-01 -6.062865e-01
1.770000e+10 1.304032e-01 -5.997854e-01 5.864054e-01 1.708767e-01 5.864054e-01 1.708767e-01 1.264090e-01 -6.010165e-01
1.780000e+10 1.212760e-01 -5.943818e-01 5.909901e-01 1.652623e-01 5.909901e-01 1.652623e-01 1.172578e-01 -5.955727e-01
1.790000e+10 1.122848e-01 -5.888091e-01 5.954440e-01 1.595580e-01 5.954440e-01 1.595580e-01 1.082435e-01 -5.899592e-01
1.800000e+10 1.034337e-01 -5.830714e-01 5.997649e-01 1.537678e-01 5.997649e-01 1.537678e-01 9.937019e-02 -5.841804e-01
1.810000e+10 9.472682e-02 -5.771730e-01 6.039510e-01 1.478957e-01 6.039510e-01 1.478957e-01 9.064186e-02 -5.782406e-01
1.820000e+10 8.616784e-02 -5.711186e-01 6.080007e-01 1.419460e-01 6.080007e-01 1.419460e-01 8.206234e-02 -5.721444e-01
1.830000e+10 7.776045e-02 -5.649128e-01 6.119124e-01 1.359226e-01 6.119124e-01 1.359226e-01 7.363530e-02 -5.658964e-01
1.840000e+10 6.950811e-02 -5.585603e-01 6.156846e-01 1.298299e-01 6.156846e-01 1.298299e-01 6.536418e-02 -5.595015e-01
1.850000e+10 6.141409e-02 -5.520659e-01 6.193161e-01 1.236719e-01 6.193161e-01 1.236719e-01 5.725229e-02 -5.529644e-01
1.860000e+10 5.348149e-02 -5.454347e-01 6.228059e-01 1.174531e-01 6.228059e-01 1.174531e-01 4.930270e-02 -5.462902e-01
1.870000e+10 4.571320e-02 -5.386716e-01 6.261530e-01 1.111775e-01 6.261530e-01 1.111775e-01 4.151832e-02 -5.394839e-01
1.880000e+10 3.811194e-02 -5.317817e-01 6.293566e-01 1.048495e-01 6.293566e-01 1.048495e-01 3.390186e-02 -5.325507e-01
1.890000e+10 3.068020e-02 -5.247703e-01 6.324162e-01 9.847335e-02 6.324162e-01 9.847335e-02 2.645583e-02 -5.254957e-01
1.900000e+10 2.342030e-02 -5.176426e-01 6.353312e-01 9.205329e-02 6.353312e-01 9.205329e-02 1.918254e-02 -5.183243e-01
1.910000e+10 1.633435e-02 -5.104038e-01 6.381013e-01 8.559357e-02 6.381013e-01 8.559357e-02 1.208410e-02 -5.110417e-01
1.920000e+10 9.424271e-03 -5.030593e-01 6.407263e-01 7.909842e-02 6.407263e-01 7.909842e-02 5.162417e-03 -5.036533e-01
1.930000e+10 2.691768e-03 -4.956144e-01 6.432064e-01 7.257204e-02 6.432064e-01 7.257204e-02 -1.580787e-03 -4.961644e-01
1.940000e+10 -3.861641e-03 -4.880745e-01 6.455415e-01 6.601860e-02 6.455415e-01 6.601860e-02 -8.144005e-03 -4.885805e-01
1.950000e+10 -1.023464e-02 -4.804449e-01 6.477320e-01 5.944224e-02 6.477320e-01 5.944224e-02 -1.452593e-02 -4.809069e-01
1.960000e+10 -1.642611e-02 -4.727312e-01 6.497783e-01 5.284705e-02 6.497783e-01 5.284705e-02 -2.072544e-02 -4.731491e-01
1.970000e+10 -2.243514e-02 -4.649386e-01 6.516809e-01 4.623706e-02 6.516809e-01 4.623706e-02 -2.674163e-02 -4.653125e-01
1.980000e+10 -2.826098e-02 -4.570725e-01 6.534405e-01 3.961625e-02 6.534405e-01 3.961625e-02 -3.257376e-02 -4.574025e-01
1.990000e+10 -3.390311e-02 -4.491383e-01 6.550580e-01 3.298856e-02 6.550580e-01 3.298856e-02 -3.822132e-02 -4.494244e-01
2.000000e+10 -3.936116e-02 -4.411413e-01 6.565343e-01 2.635784e-02 6.565343e-01 2.635784e-02 -4.368395e-02 -4.413836e-01
