! Created Mon Jan  5 17:16:06 2026
! List of port names and net name(s): example Port n = <port_name> <net_name1> <net_name2> ...
! Port 1 = P1 P1 
! Port 2 = P2 P2 
# hz S ri R 50
! 2 Port Network Data from data block
! freq  reS11  imS11  reS21  imS21  reS12  imS12  reS22  imS22  
!     
0      0.0342798705                  0        0.965720129                 -0        0.965720129                 -0       0.0342798705                  0
8.19612898      0.0342798705     4.42898124e-09        0.965720129    -4.69016148e-09        0.965720129    -4.69016148e-09       0.0342798705     4.43062088e-09
81.9612898      0.0342798705     4.42898126e-08        0.965720129    -4.69016153e-08        0.965720129    -4.69016153e-08       0.0342798705     4.43062083e-08
819.612898      0.0342798705     4.42898126e-07        0.965720129    -4.69016152e-07        0.965720129    -4.69016152e-07       0.0342798705     4.43062083e-07
8196.12898      0.0342798705     4.42898126e-06        0.965720129    -4.69016152e-06        0.965720129    -4.69016152e-06       0.0342798705     4.43062083e-06
10318.3151      0.0342798705     5.57575705e-06        0.965720129    -5.90456352e-06        0.965720129    -5.90456352e-06       0.0342798705     5.57782115e-06
12989.989      0.0342798706     7.01946225e-06        0.965720129    -7.43340506e-06        0.965720129    -7.43340506e-06       0.0342798706     7.02206079e-06
16353.4273      0.0342798706      8.8369794e-06        0.965720129    -9.35810253e-06        0.965720129    -9.35810253e-06       0.0342798706     8.84025077e-06
20587.7452      0.0342798706     1.11250979e-05        0.965720129    -1.17811531e-05        0.965720129    -1.17811531e-05       0.0342798706     1.11292163e-05
25918.4356      0.0342798707     1.40056685e-05        0.965720129     -1.4831593e-05        0.965720129     -1.4831593e-05       0.0342798707     1.40108533e-05
32629.3772      0.0342798708      1.7632092e-05        0.965720129    -1.86718693e-05        0.965720129    -1.86718693e-05       0.0342798708     1.76386192e-05
41077.9521       0.034279871     2.21974886e-05        0.965720128    -2.35064908e-05        0.965720128    -2.35064908e-05        0.034279871      2.2205706e-05
51714.0778      0.0342798714     2.79449825e-05        0.965720128    -2.95929185e-05        0.965720128    -2.95929185e-05       0.0342798714     2.79553275e-05
65104.1666      0.0342798719     3.51806486e-05        0.965720128    -3.72552771e-05        0.965720128    -3.72552771e-05       0.0342798719     3.51936722e-05
81961.2898      0.0342798727     4.42898125e-05        0.965720127    -4.69016151e-05        0.965720127    -4.69016151e-05       0.0342798727     4.43062082e-05
103183.151      0.0342798739     5.57575704e-05        0.965720125     -5.9045635e-05        0.965720125     -5.9045635e-05       0.0342798739     5.57782113e-05
129899.89      0.0342798759     7.01946221e-05        0.965720123    -7.43340501e-05        0.965720123    -7.43340501e-05        0.034279876     7.02206075e-05
163534.273      0.0342798791     8.83697933e-05         0.96572012    -9.35810243e-05         0.96572012    -9.35810243e-05       0.0342798791      8.8402507e-05
205877.452      0.0342798842     0.000111250978        0.965720114    -0.000117811529        0.965720114    -0.000117811529       0.0342798842     0.000111292162
259184.356      0.0342798921     0.000140056682        0.965720106    -0.000148315926        0.965720106    -0.000148315926       0.0342798922      0.00014010853
326293.772      0.0342799048     0.000176320914        0.965720092    -0.000186718685        0.965720092    -0.000186718685       0.0342799049     0.000176386186
410779.521      0.0342799249     0.000221974875         0.96572007    -0.000235064892         0.96572007    -0.000235064892       0.0342799251     0.000222057048
517140.778      0.0342799567     0.000279449802        0.965720036    -0.000295929155        0.965720036    -0.000295929155        0.034279957     0.000279553251
651041.666       0.034280007      0.00035180644        0.965719982     -0.00037255271        0.965719982     -0.00037255271       0.0342800075     0.000351936674
819612.898      0.0342800869     0.000442898033        0.965719896    -0.000469016028        0.965719896    -0.000469016028       0.0342800877     0.000443061988
1031831.51      0.0342802135     0.000557575519        0.965719759    -0.000590456105        0.965719759    -0.000590456105       0.0342802147     0.000557781925
1298998.9      0.0342804141     0.000701945853        0.965719543    -0.000743340012        0.965719543    -0.000743340012       0.0342804161       0.0007022057
1635342.73       0.034280732     0.000883697198          0.9657192    -0.000935809267          0.9657192    -0.000935809267       0.0342807352     0.000884024322
2058774.52      0.0342812359      0.00111250831        0.965718657     -0.00117811334        0.965718657     -0.00117811334       0.0342812409      0.00111292013
2591843.56      0.0342820346       0.0014005639        0.965717796     -0.00148315538        0.965717796     -0.00148315538       0.0342820424      0.00140108232
3262937.72      0.0342833003      0.00176320331        0.965716431      -0.0018671791        0.965716431      -0.0018671791       0.0342833128      0.00176385592
4107795.21      0.0342853063      0.00221973711        0.965714268     -0.00235063346        0.965714268     -0.00235063346       0.0342853261      0.00222055862
5171407.78      0.0342884857       0.0027944748         0.96571084     -0.00295926069         0.96571084     -0.00295926069       0.0342885171      0.00279550886
6510416.66      0.0342935246      0.00351801808        0.965705406     -0.00372546553        0.965705406     -0.00372546553       0.0342935743      0.00351931955
7361002.21      0.0342973255       0.0039776322        0.965701308     -0.00421217781        0.965701308     -0.00421217781        0.034297389      0.00397910343
8215590.42      0.0343016136      0.00443940371        0.965696685     -0.00470117319        0.965696685     -0.00470117319       0.0343016927      0.00444104539
10342815.6      0.0343143306      0.00558880891        0.965682973     -0.00591833439        0.965682973     -0.00591833439        0.034314456      0.00559087436
13020833.3      0.0343344853      0.00703575542        0.965661243     -0.00745055799        0.965661243     -0.00745055799       0.0343346839      0.00703835307
15953240.6      0.0343618531      0.00862004021        0.965631736     -0.00912818448        0.965631736     -0.00912818448        0.034362151      0.00862321854
19531250      0.0344027475       0.0105529313         0.96558765      -0.0111749046         0.96558765      -0.0111749046       0.0344031937       0.0105568146
22637009      0.0344449277       0.0122305016         0.96554218       -0.012951213         0.96554218       -0.012951213       0.0344455266       0.0122349929
26041666.7      0.0344983026       0.0140692652        0.965484648      -0.0148981333        0.965484648      -0.0148981333       0.0344990944       0.0140744182
32552083.3      0.0346211388       0.0175844764        0.965352267      -0.0186198729        0.965352267      -0.0186198729       0.0346223731       0.0175908782
39062500      0.0347712409       0.0210982845        0.965190541      -0.0223397535        0.965190541      -0.0223397535       0.0347730132        0.021105909
45572916.6      0.0349485901       0.0246104094        0.964999516      -0.0260574067        0.964999516      -0.0260574067       0.0349509942       0.0246192253
52083333.3      0.0351531643       0.0281205708        0.964779244      -0.0297724659        0.964779244      -0.0297724659       0.0351562922       0.0281305422
58593750      0.0353849381        0.031628489        0.964529783      -0.0334845669        0.964529783      -0.0334845669       0.0353888794        0.031639575
65104166.6      0.0356438824       0.0351338842        0.964251203      -0.0371933477        0.964251203      -0.0371933477       0.0356487243       0.0351460394
71614583.3       0.035929965       0.0386364772        0.963943577       -0.040898449        0.963943577       -0.040898449       0.0359357918       0.0386496517
78125000        0.03624315        0.042135989        0.963606988      -0.0445995144        0.963606988      -0.0445995144       0.0362500431       0.0421501284
84635416.6      0.0365833983       0.0456321409        0.963241524      -0.0482961907        0.963241524      -0.0482961907       0.0365914357       0.0456471869
91145833.3      0.0369506671       0.0491246546        0.962847281      -0.0519881282        0.962847281      -0.0519881282       0.0369599234        0.049140545
97656250      0.0373449104       0.0526132523        0.962424363      -0.0556749806        0.962424363      -0.0556749806       0.0373554564       0.0526299211
104166667      0.0377660784       0.0560976567        0.961972878      -0.0593564056        0.961972878      -0.0593564056       0.0377779812       0.0561150344
110677083      0.0382141182       0.0595775909        0.961492941      -0.0630320648        0.961492941      -0.0630320648       0.0382274405       0.0595956049
117187500      0.0386889731       0.0630527785        0.960984674      -0.0667016238        0.960984674      -0.0667016238       0.0387037736       0.0630713532
123697917      0.0391905831       0.0665229438        0.960448204      -0.0703647526        0.960448204      -0.0703647526       0.0392069158        0.066542001
130208333      0.0397188846       0.0699878119        0.959883664      -0.0740211258        0.959883664      -0.0740211258       0.0397367992       0.0700072707
136718750      0.0402738106       0.0734471082        0.959291191      -0.0776704223        0.959291191      -0.0776704223        0.040293352       0.0734668857
143229167      0.0408552905       0.0769005592         0.95867093      -0.0813123256         0.95867093      -0.0813123256       0.0408764987       0.0769205706
149739583      0.0414632501       0.0803478919        0.958023027      -0.0849465241        0.958023027      -0.0849465241       0.0414861603       0.0803680509
156250000      0.0420976117       0.0837888343        0.957347636       -0.088572711        0.957347636       -0.088572711       0.0421222542       0.0838090531
162760417      0.0427582942       0.0872231152        0.956644915      -0.0921905842        0.956644915      -0.0921905842       0.0427846943       0.0872433051
169270833      0.0434452128       0.0906504643        0.955915023      -0.0957998466        0.955915023      -0.0957998466       0.0434733906        0.090670536
175781250      0.0441582792       0.0940706123        0.955158127       -0.099400206        0.955158127       -0.099400206       0.0441882498        0.094090476
182291667      0.0448974015       0.0974832912        0.954374396       -0.102991375        0.954374396       -0.102991375        0.044929175       0.0975028569
188802083      0.0456624841        0.100888234        0.953564002       -0.106573072        0.953564002       -0.106573072       0.0456960657        0.100907412
195312500      0.0464534283        0.104285174        0.952727122       -0.110145018        0.952727122       -0.110145018       0.0464888179        0.104303875
201822917      0.0472701312        0.107673847        0.951863934       -0.113706942        0.951863934       -0.113706942       0.0473073241        0.107691982
208333333      0.0481124868        0.111053989        0.950974621       -0.117258577        0.950974621       -0.117258577       0.0481514731        0.111071471
214843750      0.0489803854        0.114425338        0.950059367       -0.120799658        0.950059367       -0.120799658       0.0490211505        0.114442082
221354167      0.0498737135        0.117787634         0.94911836        -0.12432993         0.94911836        -0.12432993       0.0499162384        0.117803554
227864583      0.0507923545        0.121140618        0.948151791       -0.127849138        0.948151791       -0.127849138       0.0508366153        0.121155631
234375000      0.0517361879         0.12448403         0.94715985       -0.131357034         0.94715985       -0.131357034       0.0517821564        0.124498057
240885417      0.0527050896        0.127817616        0.946142734       -0.134853376        0.946142734       -0.134853376       0.0527527333        0.127830578
247395833      0.0536989323        0.131141121        0.945100637       -0.138337923        0.945100637       -0.138337923       0.0537482146        0.131152942
253906250      0.0547175848        0.134454292        0.944033759       -0.141810442        0.944033759       -0.141810442       0.0547684653        0.134464899
260416667      0.0557609126        0.137756878        0.942942299       -0.145270702        0.942942299       -0.145270702        0.055813347        0.137766201
266927083      0.0568287777         0.14104863         0.94182646       -0.148718479         0.94182646       -0.148718479       0.0568827182        0.141056603
273437500      0.0579210386        0.144329302        0.940686444       -0.152153551        0.940686444       -0.152153551       0.0579764341        0.144335861
279947917      0.0590375502        0.147598646        0.939522456       -0.155575702        0.939522456       -0.155575702       0.0590943464        0.147603733
286458333      0.0601781643        0.150856422        0.938334702       -0.158984718        0.938334702       -0.158984718        0.060236304         0.15085998
292968750      0.0613427288        0.154102388         0.93712339       -0.162380393         0.93712339       -0.162380393       0.0614021524        0.154104365
299479167      0.0625310887        0.157336305        0.935888727       -0.165762521        0.935888727       -0.165762521       0.0625917339        0.157336653
305989583      0.0637430853        0.160557936        0.934630923       -0.169130902        0.934630923       -0.169130902       0.0638048877        0.160556612
312500000      0.0649785568        0.163767049         0.93335019        -0.17248534         0.93335019        -0.17248534       0.0650414502        0.163764012
319010417       0.066237338        0.166963412        0.932046737       -0.175825643        0.932046737       -0.175825643       0.0663012545        0.166958627
325520833      0.0675192605        0.170146794        0.930720778       -0.179151623        0.930720778       -0.179151623       0.0675841308        0.170140231
332031250      0.0688241525        0.173316971        0.929372527       -0.182463094        0.929372527       -0.182463094       0.0688899063        0.173308602
338541667      0.0701518395        0.176473718        0.928002196       -0.185759875        0.928002196       -0.185759875       0.0702184054        0.176463521
345052083      0.0715021433        0.179616815        0.926610002        -0.18904179        0.926610002        -0.18904179       0.0715694494        0.179604772
351562500       0.072874883        0.182746042        0.925196159       -0.192308664        0.925196159       -0.192308664       0.0729428572         0.18273214
358072917      0.0742698746        0.185861185        0.923760884       -0.195560327        0.923760884       -0.195560327       0.0743384445        0.185845415
364583333      0.0756869311        0.188962032        0.922304394       -0.198796614        0.922304394       -0.198796614       0.0757560246        0.188944389
377604167       0.078586476        0.195119999        0.919328638       -0.205222405        0.919328638       -0.205222405       0.0786564022        0.195098616
390625000      0.0815719644        0.201218307         0.91627064       -0.211584773         0.91627064       -0.211584773       0.0816424431        0.201193215
403645833      0.0846417989        0.207255366        0.913132154       -0.217882508        0.913132154       -0.217882508         0.08471256        0.207226633
416666666      0.0877943403        0.213229644        0.909914945       -0.224114449        0.909914945       -0.224114449       0.0878651273        0.213197365
429687500      0.0910279099        0.219139658        0.906620781        -0.23027949        0.906620781        -0.23027949        0.091098483        0.219103961
442708333      0.0943407915        0.224983986         0.90325144       -0.236376574         0.90325144       -0.236376574       0.0944109308        0.224945022
455729166      0.0977312341        0.230761261        0.899808703       -0.242404695        0.899808703       -0.242404695       0.0978007419        0.230719206
468750000       0.101197454        0.236470177        0.896294357       -0.248362894        0.896294357       -0.248362894        0.101266157        0.236425226
481770833       0.104737639        0.242109486        0.892710192       -0.254250264        0.892710192       -0.254250264         0.10480539        0.242061854
494791666       0.108349947        0.247678004        0.889058002       -0.260065943        0.889058002       -0.260065943        0.108416627        0.247627918
507812500       0.112032514        0.253174607        0.885339583       -0.265809118        0.885339583       -0.265809118        0.112098033        0.253122306
520833333       0.115783454        0.258598236        0.881556733       -0.271479025        0.881556733       -0.271479025        0.115847751        0.258543965
533854166       0.119600862        0.263947893         0.87771125       -0.277074945         0.87771125       -0.277074945        0.119663904        0.263891902
546875000       0.123482817        0.269222646        0.873804933       -0.282596207        0.873804933       -0.282596207        0.123544601        0.269165187
559895833       0.127427383        0.274421626        0.869839578       -0.288042186        0.869839578       -0.288042186        0.127487936        0.274362947
572916666       0.131432617         0.27954403        0.865816982       -0.293412303        0.865816982       -0.293412303        0.131491993        0.279484372
585937500       0.135496566        0.284589115        0.861738935       -0.298706026        0.861738935       -0.298706026        0.135554845        0.284528715
598958333       0.139617274        0.289556206        0.857607225       -0.303922866        0.857607225       -0.303922866        0.139674561        0.289495286
611979166        0.14379278        0.294444689        0.853423637        -0.30906238        0.853423637        -0.30906238        0.143849205         0.29438346
625000000       0.148021127        0.299254013        0.849189945       -0.314124172        0.849189945       -0.314124172         0.14807684        0.299192668
638020833       0.152300358        0.303983689         0.84490792       -0.319107886         0.84490792       -0.319107886         0.15235553        0.303922405
651041666       0.156628525        0.308633288        0.840579323       -0.324013213        0.840579323       -0.324013213        0.156683342        0.308572224
664062500       0.161003683        0.313202442        0.836205905       -0.328839885        0.836205905       -0.328839885        0.161058348        0.313141736
677083333       0.165423903        0.317690842        0.831789407       -0.333587677        0.831789407       -0.333587677        0.165478629        0.317630609
690104166       0.169887264        0.322098236         0.82733156       -0.338256407         0.82733156       -0.338256407        0.169942275         0.32203857
703125000       0.174391862        0.326424429         0.82283408       -0.342845932         0.82283408       -0.342845932         0.17444739        0.326365402
716145833       0.178935808        0.330669281        0.818298671       -0.347356151        0.818298671       -0.347356151        0.178992089         0.33061094
729166666       0.183517232        0.334832703        0.813727023       -0.351787003        0.813727023       -0.351787003        0.183574507        0.334775075
742187500       0.188134286        0.338914661        0.809120808       -0.356138465        0.809120808       -0.356138465        0.188192792        0.338857748
755208333        0.19278514         0.34291517        0.804481685       -0.360410554        0.804481685       -0.360410554        0.192845116        0.342858953
768229166        0.19746799        0.346834292        0.799811294       -0.364603321        0.799811294       -0.364603321         0.19752967        0.346778731
781250000       0.202181057         0.35067214        0.795111256       -0.368716856        0.795111256       -0.368716856        0.202244668        0.350617174
794270833       0.206922586        0.354428867        0.790383173       -0.372751284        0.790383173       -0.372751284        0.206988349        0.354374416
807291666       0.211690851        0.358104672         0.78562863       -0.376706765         0.78562863       -0.376706765        0.211758976        0.358050639
820312500       0.216484153        0.361699796        0.780849189       -0.380583493        0.780849189       -0.380583493         0.21655484        0.361646065
833333333       0.221300822        0.365214519        0.776046391       -0.384381693        0.776046391       -0.384381693        0.221374259         0.36516096
859375000       0.230997735         0.37200407        0.766376779       -0.391743572        0.766376779       -0.391743572        0.231077184        0.371950411
885416666       0.240768845        0.378476295        0.756631677       -0.398794829        0.756631677       -0.398794829         0.24085489        0.378421869
911458333       0.250601915        0.384634688        0.746822588       -0.405538349        0.746822588       -0.405538349        0.250695019         0.38457876
937500000       0.260485231        0.390483211        0.736960624       -0.411977444        0.736960624       -0.411977444        0.260585728        0.390425007
963541666       0.270407606        0.396026247        0.727056491        -0.41811582        0.727056491        -0.41811582        0.270515705        0.395964973
989583333       0.280358382        0.401268544        0.717120483       -0.423957546        0.717120483       -0.423957546        0.280474172        0.401203409
1.015625e+09       0.290327435        0.406215171        0.707162468       -0.429507016        0.707162468       -0.429507016         0.29045089        0.406145408
1.04166667e+09       0.300305163        0.410871475         0.69719189       -0.434768923         0.69719189       -0.434768923        0.300436156        0.410796354
1.06770833e+09       0.310282479        0.415243036        0.687217765       -0.439748225        0.687217765       -0.439748225        0.310420796        0.415161879
1.09375e+09       0.320250807        0.419335633        0.677248678       -0.444450115        0.677248678       -0.444450115        0.320396156        0.419247824
1.11979167e+09        0.33020206        0.423155205        0.667292789       -0.448879992        0.667292789       -0.448879992        0.330354091        0.423060196
1.14583333e+09       0.340128637        0.426707822         0.65735783       -0.453043433         0.65735783       -0.453043433        0.340286948        0.426605137
1.171875e+09       0.350023396        0.429999654        0.647451118       -0.456946168        0.647451118       -0.456946168        0.350187555        0.429888893
1.19791667e+09       0.359879649        0.433036947        0.637579556       -0.460594051        0.637579556       -0.460594051        0.360049203        0.432917782
1.22395833e+09        0.36969114        0.435825995         0.62774964       -0.463993041         0.62774964       -0.463993041        0.369865624         0.43569817
1.25e+09       0.379452028        0.438373121        0.617967474       -0.467149175        0.617967474       -0.467149175        0.379630981        0.438236448
1.27604167e+09       0.389156872        0.440684658        0.608238772       -0.470068547        0.608238772       -0.470068547        0.389339841        0.440539013
1.30208333e+09       0.398800613        0.442766931        0.598568875       -0.472757294        0.598568875       -0.472757294        0.398987164        0.442612244
1.328125e+09       0.408378559        0.444626242        0.588962757       -0.475221569        0.588962757       -0.475221569        0.408568279        0.444462495
1.35416667e+09       0.417886365        0.446268855        0.579425041       -0.477467533        0.579425041       -0.477467533        0.418078871        0.446096074
1.38020833e+09        0.42732002        0.447700986        0.569960009       -0.479501332        0.569960009       -0.479501332        0.427514959        0.447519233
1.40625e+09        0.43667583        0.448928791        0.560571614       -0.481329087        0.560571614       -0.481329087        0.436872885         0.44873816
1.43229167e+09       0.445950403        0.449958357        0.551263496        -0.48295688        0.551263496        -0.48295688        0.446149289        0.449758964
1.45833333e+09       0.455140634        0.450795695        0.542038988       -0.484390742        0.542038988       -0.484390742        0.455341103        0.450587674
1.484375e+09        0.46424369        0.451446728        0.532901139       -0.485636642        0.532901139       -0.485636642        0.464445527        0.451230229
1.51041667e+09       0.473256996        0.451917294        0.523852717       -0.486700477        0.523852717       -0.486700477        0.473460022         0.45169247
1.53645833e+09       0.482178224        0.452213131        0.514896228       -0.487588067        0.514896228       -0.487588067         0.48238229         0.45198014
1.5625e+09       0.491005278        0.452339879        0.506033925       -0.488305143        0.506033925       -0.488305143        0.491210265        0.452098877
1.58854167e+09       0.499736282        0.452303073        0.497267823       -0.488857342        0.497267823       -0.488857342        0.499942099        0.452054213
1.61458333e+09       0.508369568        0.452108142        0.488599711       -0.489250202        0.488599711       -0.489250202        0.508576148        0.451851569
1.640625e+09       0.516903666        0.451760404        0.480031162       -0.489489158        0.480031162       -0.489489158        0.517110964        0.451496253
1.66666667e+09        0.52533729        0.451265065        0.471563545       -0.489579534        0.471563545       -0.489579534        0.525545281        0.450993461
1.69270833e+09       0.533669332        0.450627219        0.463198038       -0.489526544        0.463198038       -0.489526544        0.533878007        0.450348273
1.71875e+09       0.541898849        0.449851845        0.454935639       -0.489335288        0.454935639       -0.489335288        0.542108214        0.449565655
1.74479167e+09       0.550025054        0.448943805        0.446777173       -0.489010745        0.446777173       -0.489010745        0.550235124        0.448650455
1.77083333e+09       0.558047306        0.447907846        0.438723307       -0.488557781        0.438723307       -0.488557781        0.558258108        0.447607406
1.796875e+09       0.565965105          0.4467486        0.430774557       -0.487981136        0.430774557       -0.487981136         0.56617667        0.446441124
1.82291667e+09       0.573778078         0.44547058        0.422931296       -0.487285435        0.422931296       -0.487285435        0.573990443         0.44515611
1.84895833e+09       0.581485977        0.444078188        0.415193767       -0.486475179        0.415193767       -0.486475179         0.58169918        0.443756751
1.875e+09       0.589088665        0.442575706        0.407562091       -0.485554749        0.407562091       -0.485554749        0.589302747        0.442247316
1.92708333e+09       0.603978401        0.439257039        0.392616206       -0.483400287        0.392616206       -0.483400287        0.604194358        0.438914738
1.97916667e+09       0.618448226        0.435546587        0.378092437       -0.480854704        0.378092437       -0.480854704        0.618666195        0.435190298
2.03125e+09       0.632500485        0.431474582          0.3639881       -0.477948772          0.3639881       -0.477948772        0.632720566        0.431104155
2.08333333e+09       0.646138734         0.42706953        0.350299248       -0.474711432        0.350299248       -0.474711432        0.646360982        0.426684762
2.13541667e+09       0.659367574        0.422358264        0.337020854       -0.471169852        0.337020854       -0.471169852        0.659591991        0.421958911
2.1875e+09       0.672192499        0.417366001        0.324146993        -0.46734949        0.324146993        -0.46734949        0.672419033        0.416951796
2.23958333e+09       0.684619756        0.412116408        0.311670985       -0.463274168        0.311670985       -0.463274168        0.684848299        0.411687071
2.29166667e+09       0.696656222        0.406631659        0.299585539       -0.458966144        0.299585539       -0.458966144        0.696886616        0.406186914
2.34375e+09       0.708309296        0.400932511        0.287882864       -0.454446189        0.287882864       -0.454446189        0.708541332         0.40047209
2.39583333e+09       0.719586792        0.395038361        0.276554785       -0.449733666        0.276554785       -0.449733666        0.719820222        0.394562015
2.44791667e+09        0.73049686        0.388967321        0.265592825       -0.444846604        0.265592825       -0.444846604        0.730731397        0.388474826
2.5e+09       0.741047901        0.382736279        0.254988293       -0.439801773        0.254988293       -0.439801773         0.74128323        0.382227438
2.55208333e+09       0.751248501        0.376360968        0.244732353       -0.434614762        0.244732353       -0.434614762        0.751484283        0.375835617
2.60416667e+09       0.761107369        0.369856026         0.23481608       -0.429300046         0.23481608       -0.429300046        0.761343246        0.369314034
2.65625e+09       0.770633283        0.363235061         0.22523052       -0.423871054         0.22523052       -0.423871054        0.770868886        0.362676333
2.70833333e+09       0.779835044        0.356510713        0.215966727       -0.418340241        0.215966727       -0.418340241        0.780069998        0.355935186
2.76041667e+09       0.788721437        0.349694707        0.207015808       -0.412719145        0.207015808       -0.412719145        0.788955363        0.349102352
2.8125e+09       0.797301192        0.342797913        0.198368952       -0.407018448        0.198368952       -0.407018448        0.797533716        0.342188734
2.86458333e+09       0.805582958        0.335830399        0.190017456       -0.401248037        0.190017456       -0.401248037         0.80581371        0.335204426
2.91666667e+09       0.813575274        0.328801478        0.181952754       -0.395417051        0.181952754       -0.395417051        0.813803896        0.328158773
2.96875e+09       0.821286551        0.321719763        0.174166425       -0.389533937        0.174166425       -0.389533937        0.821512694        0.321060411
3.02083333e+09       0.828725053        0.314593207        0.166650221       -0.383606496        0.166650221       -0.383606496        0.828948383        0.313917317
3.07291667e+09       0.835898878        0.307429153        0.159396067       -0.377641925        0.159396067       -0.377641925        0.836119078        0.306736852
3.125e+09       0.842815952        0.300234367         0.15239608       -0.371646864         0.15239608       -0.371646864        0.843032721        0.299525802
3.17708333e+09       0.849484018        0.293015086         0.14564257       -0.365627432         0.14564257       -0.365627432        0.849697072        0.292290417
3.22916667e+09       0.855910624        0.285777047         0.13912805       -0.359589264         0.13912805       -0.359589264        0.856119698        0.285036447
3.28125e+09       0.862103124        0.278525526        0.132845233       -0.353537547        0.132845233       -0.353537547        0.862307971         0.27776918
3.33333333e+09       0.868068669         0.27126537        0.126787042       -0.347477051        0.126787042       -0.347477051        0.868269062        0.270493468
3.4375e+09       0.879346489        0.256736568        0.115317254       -0.335346893        0.115317254       -0.335346893        0.879537361        0.255934151
3.54166667e+09       0.889797229        0.242221922        0.104666178       -0.323229701        0.104666178       -0.323229701         0.88997788        0.241389806
3.64583333e+09       0.899470786        0.227747591       0.0947845453       -0.311151433       0.0947845453       -0.311151433        0.899640646        0.226886592
3.75e+09       0.908413882        0.213335335       0.0856262391       -0.299133794       0.0856262391       -0.299133794        0.908572494         0.21244625
3.85416667e+09       0.916670156        0.199003139       0.0771481693        -0.28719484       0.0771481693        -0.28719484        0.916817167        0.198086732
3.95833333e+09       0.924280298        0.184765761       0.0693101339         -0.2753495       0.0693101339         -0.2753495        0.924415438        0.183822753
4.0625e+09        0.93128219        0.170635206       0.0620746677       -0.263610026       0.0620746677       -0.263610026        0.931405258        0.169666264
4.16666667e+09       0.937711056        0.156621129       0.0554068876       -0.251986381       0.0554068876       -0.251986381        0.937821906        0.155626866
4.27083333e+09        0.94359962        0.142731192       0.0492743357       -0.240486573       0.0492743357       -0.240486573        0.943698147         0.14171216
4.375e+09       0.948978261        0.128971363       0.0436468255       -0.229116947       0.0436468255       -0.229116947        0.949064387        0.127928059
4.47916667e+09       0.953875168         0.11534618       0.0384962923       -0.217882428       0.0384962923       -0.217882428        0.953948833        0.114279044
4.58333333e+09       0.958316486        0.101858976       0.0337966497       -0.206786737       0.0337966497       -0.206786737        0.958377638        0.100768396
4.6875e+09       0.962326464       0.0885120681       0.0295236521       -0.195832577       0.0295236521       -0.195832577        0.962375047       0.0873983839
4.79166667e+09       0.965927583       0.0753069258       0.0256547655       -0.185021788       0.0256547655       -0.185021788        0.965963537       0.0741704326
4.89583333e+09       0.969140692       0.0622443117       0.0221690451       -0.174355485       0.0221690451       -0.174355485        0.969163939       0.0610852662
5e+09       0.971985124       0.0493244024        0.019047021       -0.163834175        0.019047021       -0.163834175        0.971995571       0.0481430285
5.10416667e+09       0.974478813        0.036546893       0.0162705912       -0.153457856       0.0162705912       -0.153457856         0.97447634       0.0353433867
5.20833333e+09       0.976638393       0.0239110851       0.0138229218       -0.143226106       0.0138229218       -0.143226106        0.976622858         0.02268562
5.3125e+09       0.978479303       0.0114159626       0.0116883543       -0.133138158       0.0116883543       -0.133138158        0.978450537       0.0101686955
5.41666667e+09       0.980015875    -0.000939743535      0.00985231984        -0.12319296      0.00985231984        -0.12319296         0.97997368     -0.00220866799
5.52083333e+09       0.981261418      -0.0131575009      0.00830125914       -0.113389235      0.00830125914       -0.113389235        0.981205568      -0.0144479452
5.625e+09       0.982228298      -0.0252389288      0.00702254878       -0.103725524      0.00702254878       -0.103725524        0.982158539      -0.0265507581
5.72916667e+09       0.982928006      -0.0371857588      0.00600443296      -0.0942002291      0.00600443296      -0.0942002291        0.982844057      -0.0385188371
5.83333333e+09       0.983371232      -0.0489998014      0.00523596029      -0.0848116466      0.00523596029      -0.0848116466        0.983272784      -0.0503539877
5.9375e+09       0.983567918      -0.0606829177      0.00470692554      -0.0755579982      0.00470692554      -0.0755579982         0.98345464      -0.0620580629
6.04166667e+09        0.98352732       -0.072236996      0.00440781571      -0.0664374554      0.00440781571      -0.0664374554        0.983398857        -0.07363294
6.14583333e+09       0.983258061      -0.0836639318      0.00432976027      -0.0574481617      0.00432976027      -0.0574481617        0.983114037      -0.0850805013
6.25e+09       0.982768173      -0.0949656115      0.00446448524      -0.0485882508      0.00446448524      -0.0485882508        0.982608194      -0.0964026177
6.35416667e+09       0.982065147       -0.106143899       0.0048042707      -0.0398558629       0.0048042707      -0.0398558629        0.981888803       -0.107601136
6.45833333e+09       0.981155973       -0.117200622      0.00534191159      -0.0312491578      0.00534191159      -0.0312491578         0.98096284       -0.118677868
6.5625e+09       0.980047173       -0.128137569      0.00607068146      -0.0227663263      0.00607068146      -0.0227663263        0.979836817        -0.12963458
6.66666667e+09       0.978744843       -0.138956473        0.006984299      -0.0144056004        0.006984299      -0.0144056004         0.97851682        -0.14047299
6.77083333e+09       0.977254676       -0.149659014      0.00807689702     -0.00616526077      0.00807689702     -0.00616526077        0.977008537       -0.151194758
6.875e+09          0.975582        -0.16024681      0.00934299377      0.00195635577      0.00934299377      0.00195635577        0.975317291       -0.161801484
6.97916667e+09       0.973731796       -0.170721414       0.0107774664      0.00996085069       0.0107774664      0.00996085069        0.973448063       -0.172294703
7.08333333e+09       0.971708731       -0.181084312       0.0123755264       0.0178497589       0.0123755264       0.0178497589         0.97140552       -0.182675887
7.1875e+09       0.969517174       -0.191336921       0.0141326966       0.0256245445       0.0141326966       0.0256245445        0.969194034       -0.192946439
7.29166667e+09       0.967161223       -0.201480588       0.0160447903       0.0332865976       0.0160447903       0.0332865976        0.966817705       -0.203107693
7.39583333e+09       0.964644719        -0.21151659       0.0181078913       0.0408372318       0.0181078913       0.0408372318        0.964280381       -0.213160917
7.5e+09       0.961971266       -0.221446131       0.0203183355       0.0482776812       0.0203183355       0.0482776812        0.961585673       -0.223107308
7.60416667e+09       0.959144247       -0.231270349       0.0226726943       0.0556090991       0.0226726943       0.0556090991        0.958736971          -0.232948
7.70833333e+09       0.956166839       -0.240990307       0.0251677582       0.0628325565       0.0251677582       0.0628325565        0.955737459       -0.242684055
7.8125e+09       0.953042028       -0.250607002       0.0278005225       0.0699490405       0.0278005225       0.0699490405        0.952590131       -0.252316473
7.91666667e+09       0.949772617       -0.260121364       0.0305681728       0.0769594539       0.0305681728       0.0769594539          0.9492978       -0.261846189
8.02083333e+09       0.946361245       -0.269534252       0.0334680724       0.0838646139       0.0334680724       0.0838646139        0.945863108       -0.271274074
8.125e+09       0.942810391       -0.278846462       0.0364977499       0.0906652521       0.0364977499       0.0906652521        0.942288542       -0.280600938
8.22916667e+09       0.939122385       -0.288058727       0.0396548881       0.0973620136       0.0396548881       0.0973620136        0.938576436       -0.289827531
8.33333333e+09       0.935299422       -0.297171715       0.0429373128        0.103955457       0.0429373128        0.103955457        0.934728985       -0.298954543
8.54166667e+09       0.927256746       -0.315102225       0.0498699801         0.11683419       0.0498699801         0.11683419        0.926636164       -0.316912307
8.75e+09       0.918697417       -0.332642133       0.0572808482        0.129304182       0.0572808482        0.129304182        0.918025082       -0.334478641
8.95833333e+09       0.909634721       -0.349794657       0.0651567061        0.141366776       0.0651567061        0.141366776        0.908908899       -0.351657104
9.16666667e+09       0.900080346       -0.366562128       0.0734857772        0.153021923       0.0734857772        0.153021923         0.89929908       -0.368450441
9.375e+09        0.89004452       -0.382946025       0.0822574821        0.164268194       0.0822574821        0.164268194         0.88920552       -0.384860606
9.58333333e+09       0.879536131       -0.398946993       0.0914622194        0.175102779       0.0914622194        0.175102779        0.878636623       -0.400888779
9.79166667e+09       0.868562813       -0.414564856        0.101091161        0.185521499        0.101091161        0.185521499        0.867599376        -0.41653537
1e+10       0.857131019       -0.429798625        0.111136056        0.195518816        0.111136056        0.195518816        0.856099383       -0.431800004
