#   Hz   S  RI   R   50
!
0.000000e+00 1.671496e-02 0.000000e+00 9.735963e-01 0.000000e+00 9.735963e-01 0.000000e+00 1.762268e-02 0.000000e+00
1.000000e+09 1.737882e-02 2.163682e-02 9.729144e-01 -2.887016e-02 9.729144e-01 -2.887016e-02 1.827816e-02 2.156369e-02
2.000000e+09 1.936632e-02 4.318138e-02 9.708726e-01 -5.765041e-02 9.708726e-01 -5.765041e-02 2.024062e-02 4.303661e-02
3.000000e+09 2.266540e-02 6.454230e-02 9.674828e-01 -8.625171e-02 9.674828e-01 -8.625171e-02 2.349819e-02 6.432887e-02
4.000000e+09 2.725611e-02 8.562996e-02 9.627644e-01 -1.145867e-01 9.627644e-01 -1.145867e-01 2.803124e-02 8.535232e-02
5.000000e+09 3.311093e-02 1.063573e-01 9.567444e-01 -1.425707e-01 9.567444e-01 -1.425707e-01 3.381271e-02 1.060213e-01
6.000000e+09 4.019515e-02 1.266407e-01 9.494566e-01 -1.701221e-01 9.494566e-01 -1.701221e-01 4.080849e-02 1.262536e-01
7.000000e+09 4.846736e-02 1.464006e-01 9.409414e-01 -1.971634e-01 9.409414e-01 -1.971634e-01 4.897784e-02 1.459707e-01
8.000000e+09 5.788000e-02 1.655620e-01 9.312452e-01 -2.236219e-01 9.312452e-01 -2.236219e-01 5.827400e-02 1.650992e-01
9.000000e+09 6.838003e-02 1.840554e-01 9.204200e-01 -2.494298e-01 9.204200e-01 -2.494298e-01 6.864480e-02 1.835706e-01
1.000000e+10 7.990954e-02 2.018170e-01 9.085221e-01 -2.745251e-01 9.085221e-01 -2.745251e-01 8.003331e-02 2.013219e-01
1.100000e+10 9.240653e-02 2.187889e-01 8.956121e-01 -2.988516e-01 8.956121e-01 -2.988516e-01 9.237857e-02 2.182963e-01
1.200000e+10 1.058056e-01 2.349196e-01 8.817537e-01 -3.223595e-01 8.817537e-01 -3.223595e-01 1.056163e-01 2.344432e-01
1.300000e+10 1.200388e-01 2.501642e-01 8.670132e-01 -3.450051e-01 8.670132e-01 -3.450051e-01 1.196796e-01 2.497183e-01
1.400000e+10 1.350362e-01 2.644843e-01 8.514589e-01 -3.667514e-01 8.514589e-01 -3.667514e-01 1.344998e-01 2.640838e-01
1.500000e+10 1.507268e-01 2.778478e-01 8.351599e-01 -3.875676e-01 8.351599e-01 -3.875676e-01 1.500069e-01 2.775082e-01
1.600000e+10 1.670388e-01 2.902294e-01 8.181859e-01 -4.074293e-01 8.181859e-01 -4.074293e-01 1.661306e-01 2.899666e-01
1.700000e+10 1.839010e-01 3.016097e-01 8.006066e-01 -4.263179e-01 8.006066e-01 -4.263179e-01 1.828007e-01 3.014397e-01
1.800000e+10 2.012424e-01 3.119753e-01 7.824907e-01 -4.442211e-01 7.824907e-01 -4.442211e-01 1.999475e-01 3.119146e-01
1.900000e+10 2.189937e-01 3.213185e-01 7.639057e-01 -4.611317e-01 7.639057e-01 -4.611317e-01 2.175027e-01 3.213835e-01
2.000000e+10 2.370871e-01 3.296370e-01 7.449176e-01 -4.770480e-01 7.449176e-01 -4.770480e-01 2.353998e-01 3.298441e-01
2.100000e+10 2.554568e-01 3.369333e-01 7.255901e-01 -4.919730e-01 7.255901e-01 -4.919730e-01 2.535740e-01 3.372989e-01
2.200000e+10 2.740397e-01 3.432145e-01 7.059843e-01 -5.059140e-01 7.059843e-01 -5.059140e-01 2.719634e-01 3.437548e-01
2.300000e+10 2.927753e-01 3.484916e-01 6.861589e-01 -5.188826e-01 6.861589e-01 -5.188826e-01 2.905085e-01 3.492227e-01
2.400000e+10 3.116061e-01 3.527795e-01 6.661693e-01 -5.308938e-01 6.661693e-01 -5.308938e-01 3.091528e-01 3.537171e-01
2.500000e+10 3.304779e-01 3.560962e-01 6.460681e-01 -5.419657e-01 6.460681e-01 -5.419657e-01 3.278428e-01 3.572558e-01
2.600000e+10 3.493394e-01 3.584627e-01 6.259044e-01 -5.521192e-01 6.259044e-01 -5.521192e-01 3.465285e-01 3.598592e-01
2.700000e+10 3.681430e-01 3.599021e-01 6.057241e-01 -5.613778e-01 6.057241e-01 -5.613778e-01 3.651627e-01 3.615503e-01
2.800000e+10 3.868443e-01 3.604399e-01 5.855699e-01 -5.697665e-01 5.855699e-01 -5.697665e-01 3.837019e-01 3.623539e-01
2.900000e+10 4.054021e-01 3.601030e-01 5.654810e-01 -5.773125e-01 5.654810e-01 -5.773125e-01 4.021058e-01 3.622964e-01
3.000000e+10 4.237786e-01 3.589196e-01 5.454933e-01 -5.840436e-01 5.454933e-01 -5.840436e-01 4.203371e-01 3.614058e-01
3.100000e+10 4.419393e-01 3.569192e-01 5.256398e-01 -5.899893e-01 5.256398e-01 -5.899893e-01 4.383620e-01 3.597107e-01
3.200000e+10 4.598526e-01 3.541317e-01 5.059500e-01 -5.951791e-01 5.059500e-01 -5.951791e-01 4.561495e-01 3.572406e-01
3.300000e+10 4.774902e-01 3.505875e-01 4.864508e-01 -5.996434e-01 4.864508e-01 -5.996434e-01 4.736716e-01 3.540255e-01
3.400000e+10 4.948264e-01 3.463173e-01 4.671660e-01 -6.034125e-01 4.671660e-01 -6.034125e-01 4.909033e-01 3.500955e-01
3.500000e+10 5.118383e-01 3.413519e-01 4.481166e-01 -6.065169e-01 4.481166e-01 -6.065169e-01 5.078221e-01 3.454806e-01
3.600000e+10 5.285057e-01 3.357216e-01 4.293214e-01 -6.089866e-01 4.293214e-01 -6.089866e-01 5.244080e-01 3.402108e-01
3.700000e+10 5.448105e-01 3.294566e-01 4.107964e-01 -6.108515e-01 4.107964e-01 -6.108515e-01 5.406436e-01 3.343157e-01
3.800000e+10 5.607371e-01 3.225865e-01 3.925557e-01 -6.121410e-01 3.925557e-01 -6.121410e-01 5.565133e-01 3.278243e-01
3.900000e+10 5.762721e-01 3.151403e-01 3.746109e-01 -6.128835e-01 3.746109e-01 -6.128835e-01 5.720041e-01 3.207652e-01
4.000000e+10 5.914036e-01 3.071464e-01 3.569719e-01 -6.131072e-01 3.569719e-01 -6.131072e-01 5.871044e-01 3.131661e-01
4.100000e+10 6.061220e-01 2.986324e-01 3.396469e-01 -6.128391e-01 3.396469e-01 -6.128391e-01 6.018047e-01 3.050541e-01
4.200000e+10 6.204188e-01 2.896248e-01 3.226421e-01 -6.121056e-01 3.226421e-01 -6.121056e-01 6.160969e-01 2.964553e-01
4.300000e+10 6.342875e-01 2.801496e-01 3.059627e-01 -6.109320e-01 3.059627e-01 -6.109320e-01 6.299745e-01 2.873952e-01
4.400000e+10 6.477227e-01 2.702315e-01 2.896120e-01 -6.093426e-01 2.896120e-01 -6.093426e-01 6.434322e-01 2.778979e-01
4.500000e+10 6.607200e-01 2.598945e-01 2.735924e-01 -6.073611e-01 2.735924e-01 -6.073611e-01 6.564660e-01 2.679871e-01
4.600000e+10 6.732764e-01 2.491616e-01 2.579051e-01 -6.050097e-01 2.579051e-01 -6.050097e-01 6.690729e-01 2.576852e-01
4.700000e+10 6.853898e-01 2.380547e-01 2.425503e-01 -6.023101e-01 2.425503e-01 -6.023101e-01 6.812508e-01 2.470137e-01
4.800000e+10 6.970588e-01 2.265948e-01 2.275272e-01 -5.992826e-01 2.275272e-01 -5.992826e-01 6.929985e-01 2.359932e-01
4.900000e+10 7.082830e-01 2.148020e-01 2.128345e-01 -5.959467e-01 2.128345e-01 -5.959467e-01 7.043157e-01 2.246434e-01
5.000000e+10 7.190625e-01 2.026955e-01 1.984698e-01 -5.923209e-01 1.984698e-01 -5.923209e-01 7.152024e-01 2.129829e-01
5.100000e+10 7.293979e-01 1.902933e-01 1.844304e-01 -5.884228e-01 1.844304e-01 -5.884228e-01 7.256595e-01 2.010296e-01
5.200000e+10 7.392904e-01 1.776128e-01 1.707129e-01 -5.842690e-01 1.707129e-01 -5.842690e-01 7.356882e-01 1.888003e-01
5.300000e+10 7.487415e-01 1.646706e-01 1.573136e-01 -5.798752e-01 1.573136e-01 -5.798752e-01 7.452900e-01 1.763113e-01
5.400000e+10 7.577533e-01 1.514820e-01 1.442282e-01 -5.752562e-01 1.442282e-01 -5.752562e-01 7.544670e-01 1.635775e-01
5.500000e+10 7.663278e-01 1.380621e-01 1.314524e-01 -5.704260e-01 1.314524e-01 -5.704260e-01 7.632214e-01 1.506137e-01
5.600000e+10 7.744675e-01 1.244247e-01 1.189813e-01 -5.653979e-01 1.189813e-01 -5.653979e-01 7.715556e-01 1.374333e-01
5.700000e+10 7.821750e-01 1.105832e-01 1.068098e-01 -5.601840e-01 1.068098e-01 -5.601840e-01 7.794723e-01 1.240494e-01
5.800000e+10 7.894529e-01 9.655032e-02 9.493299e-02 -5.547962e-01 9.493299e-02 -5.547962e-01 7.869741e-01 1.104743e-01
5.900000e+10 7.963039e-01 8.233788e-02 8.334543e-02 -5.492452e-01 8.334543e-02 -5.492452e-01 7.940638e-01 9.671956e-02
6.000000e+10 8.027309e-01 6.795724e-02 7.204178e-02 -5.435412e-01 7.204178e-02 -5.435412e-01 8.007443e-01 8.279620e-02
6.100000e+10 8.087367e-01 5.341916e-02 6.101662e-02 -5.376938e-01 6.101662e-02 -5.376938e-01 8.070183e-01 6.871464e-02
6.200000e+10 8.143239e-01 3.873384e-02 5.026449e-02 -5.317119e-01 5.026449e-02 -5.317119e-01 8.128887e-01 5.448477e-02
6.300000e+10 8.194954e-01 2.391095e-02 3.977995e-02 -5.256039e-01 3.977995e-02 -5.256039e-01 8.183583e-01 4.011596e-02
6.400000e+10 8.242536e-01 8.959727e-03 2.955758e-02 -5.193774e-01 2.955758e-02 -5.193774e-01 8.234295e-01 2.561709e-02
6.500000e+10 8.286011e-01 -6.111079e-03 1.959201e-02 -5.130397e-01 1.959201e-02 -5.130397e-01 8.281051e-01 1.099664e-02
6.600000e+10 8.325403e-01 -2.129310e-02 9.877944e-03 -5.065975e-01 9.877944e-03 -5.065975e-01 8.323873e-01 -3.737371e-03
6.700000e+10 8.360735e-01 -3.657836e-02 4.101701e-04 -5.000570e-01 4.101701e-04 -5.000570e-01 8.362785e-01 -1.857726e-02
6.800000e+10 8.392026e-01 -5.195921e-02 -8.816422e-03 -4.934239e-01 -8.816422e-03 -4.934239e-01 8.397808e-01 -3.351570e-02
6.900000e+10 8.419296e-01 -6.742831e-02 -1.780683e-02 -4.867037e-01 -1.780683e-02 -4.867037e-01 8.428962e-01 -4.854567e-02
7.000000e+10 8.442562e-01 -8.297861e-02 -2.656591e-02 -4.799013e-01 -2.656591e-02 -4.799013e-01 8.456265e-01 -6.366044e-02
7.100000e+10 8.461841e-01 -9.860330e-02 -3.509840e-02 -4.730213e-01 -3.509840e-02 -4.730213e-01 8.479732e-01 -7.885354e-02
7.200000e+10 8.477145e-01 -1.142958e-01 -4.340888e-02 -4.660678e-01 -4.340888e-02 -4.660678e-01 8.499377e-01 -9.411869e-02
7.300000e+10 8.488486e-01 -1.300497e-01 -5.150178e-02 -4.590448e-01 -5.150178e-02 -4.590448e-01 8.515213e-01 -1.094498e-01
7.400000e+10 8.495875e-01 -1.458588e-01 -5.938137e-02 -4.519558e-01 -5.938137e-02 -4.519558e-01 8.527250e-01 -1.248411e-01
7.500000e+10 8.499318e-01 -1.617169e-01 -6.705176e-02 -4.448041e-01 -6.705176e-02 -4.448041e-01 8.535495e-01 -1.402867e-01
7.600000e+10 8.498820e-01 -1.776182e-01 -7.451689e-02 -4.375928e-01 -7.451689e-02 -4.375928e-01 8.539956e-01 -1.557810e-01
7.700000e+10 8.494387e-01 -1.935567e-01 -8.178051e-02 -4.303246e-01 -8.178051e-02 -4.303246e-01 8.540636e-01 -1.713185e-01
7.800000e+10 8.486019e-01 -2.095264e-01 -8.884621e-02 -4.230021e-01 -8.884621e-02 -4.230021e-01 8.537536e-01 -1.868937e-01
7.900000e+10 8.473716e-01 -2.255218e-01 -9.571741e-02 -4.156276e-01 -9.571741e-02 -4.156276e-01 8.530658e-01 -2.025012e-01
8.000000e+10 8.457475e-01 -2.415369e-01 -1.023973e-01 -4.082031e-01 -1.023973e-01 -4.082031e-01 8.519999e-01 -2.181355e-01
8.100000e+10 8.437292e-01 -2.575659e-01 -1.088890e-01 -4.007307e-01 -1.088890e-01 -4.007307e-01 8.505555e-01 -2.337912e-01
8.200000e+10 8.413161e-01 -2.736030e-01 -1.151953e-01 -3.932121e-01 -1.151953e-01 -3.932121e-01 8.487321e-01 -2.494630e-01
8.300000e+10 8.385075e-01 -2.896423e-01 -1.213190e-01 -3.856490e-01 -1.213190e-01 -3.856490e-01 8.465288e-01 -2.651452e-01
8.400000e+10 8.353022e-01 -3.056778e-01 -1.272624e-01 -3.780428e-01 -1.272624e-01 -3.780428e-01 8.439448e-01 -2.808324e-01
8.500000e+10 8.316993e-01 -3.217035e-01 -1.330280e-01 -3.703949e-01 -1.330280e-01 -3.703949e-01 8.409788e-01 -2.965189e-01
8.600000e+10 8.276974e-01 -3.377131e-01 -1.386178e-01 -3.627066e-01 -1.386178e-01 -3.627066e-01 8.376298e-01 -3.121990e-01
8.700000e+10 8.232951e-01 -3.537003e-01 -1.440339e-01 -3.549789e-01 -1.440339e-01 -3.549789e-01 8.338962e-01 -3.278667e-01
8.800000e+10 8.184908e-01 -3.696587e-01 -1.492779e-01 -3.472131e-01 -1.492779e-01 -3.472131e-01 8.297764e-01 -3.435162e-01
8.900000e+10 8.132829e-01 -3.855815e-01 -1.543516e-01 -3.394101e-01 -1.543516e-01 -3.394101e-01 8.252688e-01 -3.591411e-01
9.000000e+10 8.076695e-01 -4.014619e-01 -1.592563e-01 -3.315708e-01 -1.592563e-01 -3.315708e-01 8.203716e-01 -3.747352e-01
9.100000e+10 8.016487e-01 -4.172928e-01 -1.639932e-01 -3.236962e-01 -1.639932e-01 -3.236962e-01 8.150829e-01 -3.902918e-01
9.200000e+10 7.952187e-01 -4.330670e-01 -1.685635e-01 -3.157870e-01 -1.685635e-01 -3.157870e-01 8.094005e-01 -4.058042e-01
9.300000e+10 7.883772e-01 -4.487768e-01 -1.729680e-01 -3.078442e-01 -1.729680e-01 -3.078442e-01 8.033225e-01 -4.212653e-01
9.400000e+10 7.811223e-01 -4.644145e-01 -1.772076e-01 -2.998685e-01 -1.772076e-01 -2.998685e-01 7.968468e-01 -4.366679e-01
9.500000e+10 7.734519e-01 -4.799718e-01 -1.812827e-01 -2.918607e-01 -1.812827e-01 -2.918607e-01 7.899710e-01 -4.520044e-01
9.600000e+10 7.653638e-01 -4.954406e-01 -1.851938e-01 -2.838217e-01 -1.851938e-01 -2.838217e-01 7.826929e-01 -4.672671e-01
9.700000e+10 7.568558e-01 -5.108119e-01 -1.889411e-01 -2.757523e-01 -1.889411e-01 -2.757523e-01 7.750105e-01 -4.824478e-01
9.800000e+10 7.479260e-01 -5.260769e-01 -1.925249e-01 -2.676534e-01 -1.925249e-01 -2.676534e-01 7.669213e-01 -4.975380e-01
9.900000e+10 7.385722e-01 -5.412262e-01 -1.959449e-01 -2.595258e-01 -1.959449e-01 -2.595258e-01 7.584233e-01 -5.125291e-01
1.000000e+11 7.287926e-01 -5.562500e-01 -1.992011e-01 -2.513706e-01 -1.992011e-01 -2.513706e-01 7.495142e-01 -5.274120e-01
1.010000e+11 7.185851e-01 -5.711382e-01 -2.022930e-01 -2.431887e-01 -2.022930e-01 -2.431887e-01 7.401922e-01 -5.421771e-01
1.020000e+11 7.079482e-01 -5.858806e-01 -2.052204e-01 -2.349811e-01 -2.052204e-01 -2.349811e-01 7.304551e-01 -5.568148e-01
1.030000e+11 6.968802e-01 -6.004662e-01 -2.079825e-01 -2.267491e-01 -2.079825e-01 -2.267491e-01 7.203011e-01 -5.713150e-01
1.040000e+11 6.853798e-01 -6.148838e-01 -2.105786e-01 -2.184938e-01 -2.105786e-01 -2.184938e-01 7.097287e-01 -5.856670e-01
1.050000e+11 6.734456e-01 -6.291220e-01 -2.130080e-01 -2.102166e-01 -2.130080e-01 -2.102166e-01 6.987363e-01 -5.998599e-01
1.060000e+11 6.610769e-01 -6.431686e-01 -2.152697e-01 -2.019190e-01 -2.152697e-01 -2.019190e-01 6.873226e-01 -6.138827e-01
1.070000e+11 6.482728e-01 -6.570114e-01 -2.173626e-01 -1.936024e-01 -2.173626e-01 -1.936024e-01 6.754866e-01 -6.277234e-01
1.080000e+11 6.350331e-01 -6.706377e-01 -2.192857e-01 -1.852685e-01 -2.192857e-01 -1.852685e-01 6.632275e-01 -6.413701e-01
1.090000e+11 6.213577e-01 -6.840342e-01 -2.210376e-01 -1.769191e-01 -2.210376e-01 -1.769191e-01 6.505450e-01 -6.548104e-01
1.100000e+11 6.072470e-01 -6.971874e-01 -2.226171e-01 -1.685562e-01 -2.226171e-01 -1.685562e-01 6.374387e-01 -6.680314e-01
1.110000e+11 5.927016e-01 -7.100833e-01 -2.240228e-01 -1.601818e-01 -2.240228e-01 -1.601818e-01 6.239091e-01 -6.810199e-01
1.120000e+11 5.777228e-01 -7.227078e-01 -2.252534e-01 -1.517981e-01 -2.252534e-01 -1.517981e-01 6.099568e-01 -6.937623e-01
1.130000e+11 5.623123e-01 -7.350461e-01 -2.263072e-01 -1.434077e-01 -2.263072e-01 -1.434077e-01 5.955829e-01 -7.062447e-01
1.140000e+11 5.464723e-01 -7.470832e-01 -2.271829e-01 -1.350129e-01 -2.271829e-01 -1.350129e-01 5.807890e-01 -7.184527e-01
1.150000e+11 5.302056e-01 -7.588037e-01 -2.278788e-01 -1.266166e-01 -2.278788e-01 -1.266166e-01 5.655772e-01 -7.303717e-01
1.160000e+11 5.135154e-01 -7.701920e-01 -2.283934e-01 -1.182217e-01 -2.283934e-01 -1.182217e-01 5.499501e-01 -7.419866e-01
1.170000e+11 4.964058e-01 -7.812320e-01 -2.287252e-01 -1.098313e-01 -2.287252e-01 -1.098313e-01 5.339110e-01 -7.532822e-01
1.180000e+11 4.788814e-01 -7.919076e-01 -2.288725e-01 -1.014486e-01 -2.288725e-01 -1.014486e-01 5.174638e-01 -7.642430e-01
1.190000e+11 4.609476e-01 -8.022022e-01 -2.288340e-01 -9.307725e-02 -2.288340e-01 -9.307725e-02 5.006130e-01 -7.748530e-01
1.200000e+11 4.426106e-01 -8.120990e-01 -2.286081e-01 -8.472085e-02 -2.286081e-01 -8.472085e-02 4.833639e-01 -7.850961e-01
1.210000e+11 4.238772e-01 -8.215813e-01 -2.281933e-01 -7.638330e-02 -2.281933e-01 -7.638330e-02 4.657224e-01 -7.949562e-01
1.220000e+11 4.047551e-01 -8.306320e-01 -2.275884e-01 -6.806870e-02 -2.275884e-01 -6.806870e-02 4.476953e-01 -8.044167e-01
1.230000e+11 3.852529e-01 -8.392339e-01 -2.267921e-01 -5.978135e-02 -2.267921e-01 -5.978135e-02 4.292901e-01 -8.134611e-01
1.240000e+11 3.653801e-01 -8.473699e-01 -2.258032e-01 -5.152573e-02 -2.258032e-01 -5.152573e-02 4.105153e-01 -8.220728e-01
1.250000e+11 3.451470e-01 -8.550227e-01 -2.246207e-01 -4.330655e-02 -2.246207e-01 -4.330655e-02 3.913801e-01 -8.302349e-01
1.260000e+11 3.245649e-01 -8.621752e-01 -2.232437e-01 -3.512871e-02 -2.232437e-01 -3.512871e-02 3.718947e-01 -8.379309e-01
1.270000e+11 3.036460e-01 -8.688104e-01 -2.216714e-01 -2.699729e-02 -2.216714e-01 -2.699729e-02 3.520701e-01 -8.451441e-01
1.280000e+11 2.824037e-01 -8.749114e-01 -2.199033e-01 -1.891758e-02 -2.199033e-01 -1.891758e-02 3.319183e-01 -8.518581e-01
1.290000e+11 2.608521e-01 -8.804616e-01 -2.179389e-01 -1.089502e-02 -2.179389e-01 -1.089503e-02 3.114523e-01 -8.580564e-01
1.300000e+11 2.390065e-01 -8.854445e-01 -2.157782e-01 -2.935271e-03 -2.157782e-01 -2.935271e-03 2.906861e-01 -8.637229e-01
1.310000e+11 2.168832e-01 -8.898441e-01 -2.134211e-01 4.955885e-03 -2.134211e-01 4.955885e-03 2.696345e-01 -8.688420e-01
1.320000e+11 1.944995e-01 -8.936449e-01 -2.108680e-01 1.277249e-02 -2.108680e-01 1.277249e-02 2.483136e-01 -8.733981e-01
1.330000e+11 1.718736e-01 -8.968318e-01 -2.081194e-01 2.050845e-02 -2.081194e-01 2.050845e-02 2.267401e-01 -8.773763e-01
1.340000e+11 1.490250e-01 -8.993903e-01 -2.051760e-01 2.815755e-02 -2.051760e-01 2.815755e-02 2.049321e-01 -8.807620e-01
1.350000e+11 1.259740e-01 -9.013065e-01 -2.020391e-01 3.571344e-02 -2.020391e-01 3.571344e-02 1.829083e-01 -8.835414e-01
1.360000e+11 1.027419e-01 -9.025672e-01 -1.987100e-01 4.316970e-02 -1.987100e-01 4.316970e-02 1.606887e-01 -8.857013e-01
1.370000e+11 7.935102e-02 -9.031602e-01 -1.951905e-01 5.051983e-02 -1.951905e-01 5.051983e-02 1.382940e-01 -8.872291e-01
1.380000e+11 5.582457e-02 -9.030739e-01 -1.914825e-01 5.775725e-02 -1.914825e-01 5.775725e-02 1.157459e-01 -8.881131e-01
1.390000e+11 3.218667e-02 -9.022980e-01 -1.875886e-01 6.487537e-02 -1.875886e-01 6.487537e-02 9.306706e-02 -8.883424e-01
1.400000e+11 8.462314e-03 -9.008228e-01 -1.835114e-01 7.186757e-02 -1.835114e-01 7.186757e-02 7.028088e-02 -8.879072e-01
1.410000e+11 -1.532274e-02 -8.986401e-01 -1.792540e-01 7.872724e-02 -1.792540e-01 7.872724e-02 4.741161e-02 -8.867987e-01
1.420000e+11 -3.914196e-02 -8.957427e-01 -1.748199e-01 8.544781e-02 -1.748199e-01 8.544781e-02 2.448425e-02 -8.850089e-01
1.430000e+11 -6.296817e-02 -8.921246e-01 -1.702129e-01 9.202276e-02 -1.702129e-01 9.202276e-02 1.524482e-03 -8.825313e-01
1.440000e+11 -8.677356e-02 -8.877812e-01 -1.654372e-01 9.844566e-02 -1.654372e-01 9.844566e-02 -2.144137e-02 -8.793606e-01
1.450000e+11 -1.105298e-01 -8.827091e-01 -1.604974e-01 1.047102e-01 -1.604974e-01 1.047102e-01 -4.438645e-02 -8.754924e-01
1.460000e+11 -1.342081e-01 -8.769065e-01 -1.553984e-01 1.108101e-01 -1.553984e-01 1.108101e-01 -6.728340e-02 -8.709242e-01
1.470000e+11 -1.577792e-01 -8.703731e-01 -1.501455e-01 1.167395e-01 -1.501455e-01 1.167395e-01 -9.010447e-02 -8.656544e-01
1.480000e+11 -1.812139e-01 -8.631098e-01 -1.447443e-01 1.224925e-01 -1.447443e-01 1.224925e-01 -1.128216e-01 -8.596830e-01
1.490000e+11 -2.044824e-01 -8.551194e-01 -1.392009e-01 1.280634e-01 -1.392009e-01 1.280634e-01 -1.354065e-01 -8.530116e-01
1.500000e+11 -2.275552e-01 -8.464061e-01 -1.335216e-01 1.334470e-01 -1.335216e-01 1.334470e-01 -1.578308e-01 -8.456430e-01
1.510000e+11 -2.504025e-01 -8.369756e-01 -1.277130e-01 1.386381e-01 -1.277130e-01 1.386381e-01 -1.800660e-01 -8.375818e-01
1.520000e+11 -2.729950e-01 -8.268353e-01 -1.217822e-01 1.436318e-01 -1.217822e-01 1.436318e-01 -2.020838e-01 -8.288338e-01
1.530000e+11 -2.953032e-01 -8.159943e-01 -1.157363e-01 1.484238e-01 -1.157363e-01 1.484238e-01 -2.238560e-01 -8.194067e-01
1.540000e+11 -3.172985e-01 -8.044631e-01 -1.095830e-01 1.530099e-01 -1.095830e-01 1.530099e-01 -2.453547e-01 -8.093095e-01
1.550000e+11 -3.389522e-01 -7.922538e-01 -1.033299e-01 1.573863e-01 -1.033299e-01 1.573863e-01 -2.665524e-01 -7.985527e-01
1.560000e+11 -3.602366e-01 -7.793801e-01 -9.698522e-02 1.615496e-01 -9.698522e-02 1.615496e-01 -2.874220e-01 -7.871484e-01
1.570000e+11 -3.811246e-01 -7.658574e-01 -9.055706e-02 1.654968e-01 -9.055706e-02 1.654968e-01 -3.079372e-01 -7.751100e-01
1.580000e+11 -4.015896e-01 -7.517022e-01 -8.405384e-02 1.692254e-01 -8.405384e-02 1.692254e-01 -3.280722e-01 -7.624527e-01
1.590000e+11 -4.216063e-01 -7.369326e-01 -7.748410e-02 1.727331e-01 -7.748410e-02 1.727331e-01 -3.478020e-01 -7.491927e-01
1.600000e+11 -4.411501e-01 -7.215683e-01 -7.085649e-02 1.760183e-01 -7.085649e-02 1.760183e-01 -3.671026e-01 -7.353477e-01
1.610000e+11 -4.601976e-01 -7.056298e-01 -6.417978e-02 1.790797e-01 -6.417978e-02 1.790797e-01 -3.859509e-01 -7.209366e-01
1.620000e+11 -4.787265e-01 -6.891393e-01 -5.746277e-02 1.819165e-01 -5.746277e-02 1.819165e-01 -4.043249e-01 -7.059796e-01
1.630000e+11 -4.967157e-01 -6.721199e-01 -5.071429e-02 1.845283e-01 -5.071429e-02 1.845283e-01 -4.222038e-01 -6.904980e-01
1.640000e+11 -5.141456e-01 -6.545958e-01 -4.394317e-02 1.869152e-01 -4.394317e-02 1.869152e-01 -4.395678e-01 -6.745141e-01
1.650000e+11 -5.309978e-01 -6.365920e-01 -3.715822e-02 1.890778e-01 -3.715822e-02 1.890778e-01 -4.563986e-01 -6.580513e-01
1.660000e+11 -5.472555e-01 -6.181346e-01 -3.036818e-02 1.910171e-01 -3.036818e-02 1.910171e-01 -4.726792e-01 -6.411336e-01
1.670000e+11 -5.629031e-01 -5.992504e-01 -2.358166e-02 1.927346e-01 -2.358166e-02 1.927346e-01 -4.883939e-01 -6.237860e-01
1.680000e+11 -5.779269e-01 -5.799668e-01 -1.680720e-02 1.942321e-01 -1.680720e-02 1.942321e-01 -5.035284e-01 -6.060342e-01
1.690000e+11 -5.923145e-01 -5.603118e-01 -1.005314e-02 1.955120e-01 -1.005314e-02 1.955120e-01 -5.180701e-01 -5.879043e-01
1.700000e+11 -6.060552e-01 -5.403136e-01 -3.327672e-03 1.965770e-01 -3.327672e-03 1.965770e-01 -5.320076e-01 -5.694230e-01
1.710000e+11 -6.191398e-01 -5.200012e-01 3.361232e-03 1.974302e-01 3.361232e-03 1.974302e-01 -5.453313e-01 -5.506174e-01
1.720000e+11 -6.315607e-01 -4.994033e-01 1.000583e-02 1.980752e-01 1.000583e-02 1.980752e-01 -5.580327e-01 -5.315147e-01
1.730000e+11 -6.433121e-01 -4.785491e-01 1.659862e-02 1.985157e-01 1.659862e-02 1.985157e-01 -5.701053e-01 -5.121424e-01
1.740000e+11 -6.543894e-01 -4.574676e-01 2.313240e-02 1.987560e-01 2.313240e-02 1.987560e-01 -5.815438e-01 -4.925280e-01
1.750000e+11 -6.647900e-01 -4.361877e-01 2.960023e-02 1.988007e-01 2.960023e-02 1.988007e-01 -5.923444e-01 -4.726990e-01
1.760000e+11 -6.745125e-01 -4.147383e-01 3.599548e-02 1.986545e-01 3.599548e-02 1.986545e-01 -6.025048e-01 -4.526829e-01
1.770000e+11 -6.835572e-01 -3.931477e-01 4.231188e-02 1.983225e-01 4.231188e-02 1.983225e-01 -6.120244e-01 -4.325066e-01
1.780000e+11 -6.919257e-01 -3.714441e-01 4.854344e-02 1.978101e-01 4.854344e-02 1.978101e-01 -6.209035e-01 -4.121970e-01
1.790000e+11 -6.996210e-01 -3.496551e-01 5.468455e-02 1.971228e-01 5.468455e-02 1.971228e-01 -6.291442e-01 -3.917805e-01
1.800000e+11 -7.066477e-01 -3.278077e-01 6.072996e-02 1.962663e-01 6.072996e-02 1.962663e-01 -6.367496e-01 -3.712831e-01
1.810000e+11 -7.130114e-01 -3.059283e-01 6.667475e-02 1.952466e-01 6.667475e-02 1.952466e-01 -6.437242e-01 -3.507302e-01
1.820000e+11 -7.187191e-01 -2.840427e-01 7.251438e-02 1.940698e-01 7.251438e-02 1.940698e-01 -6.500738e-01 -3.301465e-01
1.830000e+11 -7.237789e-01 -2.621758e-01 7.824467e-02 1.927420e-01 7.824467e-02 1.927420e-01 -6.558051e-01 -3.095561e-01
1.840000e+11 -7.282000e-01 -2.403518e-01 8.386182e-02 1.912694e-01 8.386182e-02 1.912694e-01 -6.609260e-01 -2.889824e-01
1.850000e+11 -7.319926e-01 -2.185940e-01 8.936238e-02 1.896585e-01 8.936238e-02 1.896585e-01 -6.654453e-01 -2.684479e-01
1.860000e+11 -7.351678e-01 -1.969247e-01 9.474326e-02 1.879157e-01 9.474326e-02 1.879157e-01 -6.693730e-01 -2.479743e-01
1.870000e+11 -7.377378e-01 -1.753655e-01 1.000017e-01 1.860473e-01 1.000017e-01 1.860473e-01 -6.727197e-01 -2.275826e-01
1.880000e+11 -7.397153e-01 -1.539367e-01 1.051354e-01 1.840598e-01 1.051354e-01 1.840598e-01 -6.754968e-01 -2.072927e-01
1.890000e+11 -7.411139e-01 -1.326578e-01 1.101422e-01 1.819596e-01 1.101422e-01 1.819596e-01 -6.777165e-01 -1.871237e-01
1.900000e+11 -7.419478e-01 -1.115474e-01 1.150205e-01 1.797530e-01 1.150205e-01 1.797530e-01 -6.793918e-01 -1.670936e-01
1.910000e+11 -7.422317e-01 -9.062272e-02 1.197689e-01 1.774465e-01 1.197689e-01 1.774465e-01 -6.805359e-01 -1.472196e-01
1.920000e+11 -7.419809e-01 -6.990029e-02 1.243862e-01 1.750461e-01 1.243862e-01 1.750461e-01 -6.811629e-01 -1.275179e-01
1.930000e+11 -7.412110e-01 -4.939542e-02 1.288718e-01 1.725582e-01 1.288718e-01 1.725582e-01 -6.812870e-01 -1.080038e-01
1.940000e+11 -7.399382e-01 -2.912244e-02 1.332250e-01 1.699887e-01 1.332250e-01 1.699887e-01 -6.809231e-01 -8.869129e-02
1.950000e+11 -7.381786e-01 -9.094649e-03 1.374458e-01 1.673436e-01 1.374458e-01 1.673436e-01 -6.800862e-01 -6.959384e-02
1.960000e+11 -7.359489e-01 1.067567e-02 1.415341e-01 1.646288e-01 1.415341e-01 1.646288e-01 -6.787917e-01 -5.072371e-02
1.970000e+11 -7.332658e-01 3.017722e-02 1.454903e-01 1.618498e-01 1.454903e-01 1.618498e-01 -6.770549e-01 -3.209229e-02
1.980000e+11 -7.301461e-01 4.939968e-02 1.493148e-01 1.590123e-01 1.493148e-01 1.590123e-01 -6.748916e-01 -1.371000e-02
1.990000e+11 -7.266065e-01 6.833371e-02 1.530084e-01 1.561216e-01 1.530084e-01 1.561216e-01 -6.723174e-01 4.413596e-03
2.000000e+11 -7.226642e-01 8.697088e-02 1.565720e-01 1.531830e-01 1.565720e-01 1.531830e-01 -6.693482e-01 2.226986e-02
