#  GHZ S DB R 50.0
 1.00000000e-02 -4.980706837510e+01 +7.810851549257e-01 -2.812698602967e-02 -7.711621548735e-03 -2.812698605958e-02 -7.711621631657e-03 -4.980706910636e+01 +7.810746962467e-01
 2.00000000e-02 -4.978921186770e+01 +1.529283234047e+00 -2.817740356135e-02 -1.532640899379e-02 -2.817740353085e-02 -1.532640896436e-02 -4.978921319732e+01 +1.529250290803e+00
 1.00000000e+00 -4.636902217619e+01 +1.965314681412e+01 -3.923050877569e-02 -6.114837603228e-01 -3.923050877566e-02 -6.114837603225e-01 -4.637224848305e+01 +1.967373253631e+01
 2.00000000e+00 -4.450630101296e+01 +2.004929157418e+01 -4.834096833930e-02 -1.155717608153e+00 -4.834096833931e-02 -1.155717608153e+00 -4.451005006689e+01 +2.009017879517e+01
 3.00000000e+00 -4.347809136889e+01 +1.858049571348e+01 -5.478436832532e-02 -1.681531458377e+00 -5.478436832532e-02 -1.681531458376e+00 -4.348047926943e+01 +1.863416891820e+01
 4.00000000e+00 -4.282678953261e+01 +1.705821006508e+01 -5.945475905536e-02 -2.201295857442e+00 -5.945475905536e-02 -2.201295857442e+00 -4.282662064071e+01 +1.711528469634e+01
 5.00000000e+00 -4.236375707939e+01 +1.573794775626e+01 -6.304612685105e-02 -2.719208253224e+00 -6.304612685105e-02 -2.719208253224e+00 -4.236086184812e+01 +1.578971813563e+01
 6.00000000e+00 -4.200282839050e+01 +1.460029333115e+01 -6.599187481451e-02 -3.236616081541e+00 -6.599187481452e-02 -3.236616081541e+00 -4.199762357494e+01 +1.464070292303e+01
 7.00000000e+00 -4.170204346847e+01 +1.358579878395e+01 -6.854374064941e-02 -3.753869644133e+00 -6.854374064942e-02 -3.753869644132e+00 -4.169516432368e+01 +1.361164108495e+01
 8.00000000e+00 -4.143968460404e+01 +1.264300960654e+01 -7.084706363975e-02 -4.270994384375e+00 -7.084706363976e-02 -4.270994384375e+00 -4.143176887004e+01 +1.265334982619e+01
 9.00000000e+00 -4.120393734782e+01 +1.173500882229e+01 -7.298636823165e-02 -4.787924527526e+00 -7.298636823166e-02 -4.787924527526e+00 -4.119552324454e+01 +1.173043478620e+01
 1.00000000e+01 -4.098810710515e+01 +1.083741791818e+01 -7.501091300817e-02 -5.304584222428e+00 -7.501091300818e-02 -5.304584222428e+00 -4.097960094888e+01 +1.081938926052e+01
 1.10000000e+01 -4.078824386821e+01 +9.935219511702e+00 -7.694920780652e-02 -5.820914195195e+00 -7.694920780653e-02 -5.820914195195e+00 -4.077992413770e+01 +9.905591796026e+00
 1.20000000e+01 -4.060189742830e+01 +9.019974657713e+00 -7.881751504835e-02 -6.336878041371e+00 -7.881751504836e-02 -6.336878041371e+00 -4.059393447686e+01 +8.980688845621e+00
 1.30000000e+01 -4.042744299986e+01 +8.087676925899e+00 -8.062494925776e-02 -6.852460861427e+00 -8.062494925777e-02 -6.852460861427e+00 -4.041992291913e+01 +8.040576794356e+00
 1.40000000e+01 -4.026371047301e+01 +7.137182286113e+00 -8.237657292369e-02 -7.367665303164e+00 -8.237657292370e-02 -7.367665303164e+00 -4.025665753618e+01 +7.083920681012e+00
 1.50000000e+01 -4.010978077879e+01 +6.169097850784e+00 -8.407527384964e-02 -7.882507113675e+00 -8.407527384966e-02 -7.882507113675e+00 -4.010317626491e+01 +6.111099986534e+00
 1.60000000e+01 -3.996487569998e+01 +5.185017633452e+00 -8.572288649726e-02 -8.397011061864e+00 -8.572288649726e-02 -8.397011061864e+00 -3.995867264436e+01 +5.123478439162e+00
 1.70000000e+01 -3.982829998912e+01 +4.187012534440e+00 -8.732084047082e-02 -8.911207539565e+00 -8.732084047082e-02 -8.911207539565e+00 -3.982243420256e+01 +4.122912567481e+00
 1.80000000e+01 -3.969941240289e+01 +3.177301966047e+00 -8.887051419180e-02 -9.425129896358e+00 -8.887051419182e-02 -9.425129896358e+00 -3.969381039221e+01 +3.111432042194e+00
 1.90000000e+01 -3.957761229028e+01 +2.158052290329e+00 -9.037340745347e-02 -9.938812450477e+00 -9.037340745348e-02 -9.938812450477e+00 -3.957219675152e+01 +2.091040890975e+00
 2.00000000e+01 -3.946233415306e+01 +1.131261728044e+00 -9.183120581139e-02 -1.045228907425e+01 -9.183120581140e-02 -1.045228907425e+01 -3.945702763832e+01 +1.063601827508e+00
 2.10000000e+01 -3.935304595562e+01 +9.870270665566e-02 -9.324578342404e-02 -1.096559224285e+01 -9.324578342404e-02 -1.096559224285e+01 -3.934777320776e+01 +3.077629857897e-02
 2.20000000e+01 -3.924924890884e+01 -9.380988266531e-01 -9.461917372996e-02 -1.147875244207e+01 -9.461917372997e-02 -1.147875244207e+01 -3.924393825012e+01 -1.005999230963e+00
 2.30000000e+01 -3.915047756888e+01 -1.977861283311e+00 -9.595352605660e-02 -1.199179784463e+01 -9.595352605662e-02 -1.199179784463e+01 -3.914506163490e+01 -2.045514336487e+00
 2.40000000e+01 -3.905629971851e+01 -3.019532091972e+00 -9.725105889242e-02 -1.250475418066e+01 -9.725105889240e-02 -1.250475418066e+01 -3.905071575181e+01 -3.086772313070e+00
 2.50000000e+01 -3.896631583881e+01 -4.062265484415e+00 -9.851401581239e-02 -1.301764474334e+01 -9.851401581240e-02 -1.301764474334e+01 -3.896050569603e+01 -4.128970674434e+00
 2.60000000e+01 -3.888015815262e+01 -5.105397494729e+00 -9.974462705311e-02 -1.353049048417e+01 -9.974462705312e-02 -1.353049048417e+01 -3.887406813406e+01 -5.171478503444e+00
 2.70000000e+01 -3.879748930151e+01 -6.148420706494e+00 -1.009450778975e-01 -1.404331016403e+01 -1.009450778975e-01 -1.404331016403e+01 -3.879106987827e+01 -6.213813188448e+00
 2.80000000e+01 -3.871800074695e+01 -7.190960237757e+00 -1.021174839520e-01 -1.455612053519e+01 -1.021174839520e-01 -1.455612053519e+01 -3.871120623666e+01 -7.255618061983e+00
 2.90000000e+01 -3.864141098847e+01 -8.232751763848e+00 -1.032638728112e-01 -1.506893653666e+01 -1.032638728112e-01 -1.506893653666e+01 -3.863419921314e+01 -8.296641781250e+00
 3.00000000e+01 -3.856746368148e+01 -9.273621933280e+00 -1.043861713226e-01 -1.558177149087e+01 -1.043861713226e-01 -1.558177149087e+01 -3.855979562911e+01 -9.336719847462e+00
 3.10000000e+01 -3.849592572291e+01 -1.031347125495e+01 -1.054861975694e-01 -1.609463729379e+01 -1.054861975695e-01 -1.609463729379e+01 -3.848776522579e+01 -1.037575838321e+01
 3.20000000e+01 -3.842658535703e+01 -1.135225936989e+01 -1.065656567044e-01 -1.660754459347e+01 -1.065656567044e-01 -1.660754459347e+01 -3.841789879405e+01 -1.141372011775e+01
 3.30000000e+01 -3.835925034000e+01 -1.238999252960e+01 -1.076261398368e-01 -1.712050295439e+01 -1.076261398369e-01 -1.712050295439e+01 -3.835000636643e+01 -1.245061243459e+01
 3.40000000e+01 -3.829374618989e+01 -1.342671305998e+01 -1.086691252743e-01 -1.763352100627e+01 -1.086691252744e-01 -1.763352100627e+01 -3.828391549564e+01 -1.348647728733e+01
 3.50000000e+01 -3.822991453908e+01 -1.446249057646e+01 -1.096959815249e-01 -1.814660657718e+01 -1.096959815249e-01 -1.814660657718e+01 -3.821946963478e+01 -1.452138277252e+01
 3.60000000e+01 -3.816761159885e+01 -1.549741472055e+01 -1.107079715676e-01 -1.865976681141e+01 -1.107079715676e-01 -1.865976681141e+01 -3.815652662821e+01 -1.555541614807e+01
 3.70000000e+01 -3.810670673993e+01 -1.653158920284e+01 -1.117062579911e-01 -1.917300827297e+01 -1.117062579911e-01 -1.917300827297e+01 -3.809495731633e+01 -1.658867809779e+01
 3.80000000e+01 -3.804708118906e+01 -1.756512695739e+01 -1.126919086826e-01 -1.968633703576e+01 -1.126919086826e-01 -1.968633703576e+01 -3.803464425419e+01 -1.762127805954e+01
 3.90000000e+01 -3.798862683852e+01 -1.859814623440e+01 -1.136659028164e-01 -2.019975876180e+01 -1.136659028164e-01 -2.019975876180e+01 -3.797548054058e+01 -1.865333045321e+01
 4.00000000e+01 -3.793124516371e+01 -1.963076747927e+01 -1.146291369517e-01 -2.071327876848e+01 -1.146291369517e-01 -2.071327876848e+01 -3.791736875311e+01 -1.968495166558e+01
 4.10000000e+01 -3.787484624262e+01 -2.066311086743e+01 -1.155824310935e-01 -2.122690208633e+01 -1.155824310935e-01 -2.122690208633e+01 -3.786021998297e+01 -2.071625766672e+01
 4.20000000e+01 -3.781934787034e+01 -2.169529438232e+01 -1.165265346126e-01 -2.174063350821e+01 -1.165265346126e-01 -2.174063350821e+01 -3.780395296286e+01 -2.174736215156e+01
 4.30000000e+01 -3.776467476155e+01 -2.272743234143e+01 -1.174621319466e-01 -2.225447763108e+01 -1.174621319466e-01 -2.225447763108e+01 -3.774849328116e+01 -2.277837511446e+01
 4.40000000e+01 -3.771075783379e+01 -2.375963428944e+01 -1.183898480323e-01 -2.276843889135e+01 -1.183898480323e-01 -2.276843889135e+01 -3.769377267524e+01 -2.380940177990e+01
 4.50000000e+01 -3.765753356448e+01 -2.479200419096e+01 -1.193102534359e-01 -2.328252159448e+01 -1.193102534359e-01 -2.328252159448e+01 -3.763972839726e+01 -2.484054182365e+01
 4.60000000e+01 -3.760494341510e+01 -2.582463986571e+01 -1.202238691642e-01 -2.379672993990e+01 -1.202238691642e-01 -2.379672993990e+01 -3.758630264586e+01 -2.587188882994e+01
 4.70000000e+01 -3.755293331624e+01 -2.685763261918e+01 -1.211311711459e-01 -2.431106804161e+01 -1.211311711459e-01 -2.431106804161e+01 -3.753344205765e+01 -2.690352993840e+01
 4.80000000e+01 -3.750145320750e+01 -2.789106702915e+01 -1.220325943898e-01 -2.482553994527e+01 -1.220325943898e-01 -2.482553994527e+01 -3.748109725267e+01 -2.793554564323e+01
 4.90000000e+01 -3.745045662705e+01 -2.892502085572e+01 -1.229285368206e-01 -2.534014964223e+01 -1.229285368206e-01 -2.534014964223e+01 -3.742922242866e+01 -2.896800971260e+01
 5.00000000e+01 -3.739990034560e+01 -2.995956504800e+01 -1.238193628081e-01 -2.585490108100e+01 -1.238193628081e-01 -2.585490108100e+01 -3.737777499910e+01 -3.000098920237e+01
 5.10000000e+01 -3.734974404042e+01 -3.099476382505e+01 -1.247054064021e-01 -2.636979817640e+01 -1.247054064021e-01 -2.636979817640e+01 -3.732671527064e+01 -3.103454454274e+01
 5.20000000e+01 -3.729995000520e+01 -3.203067481385e+01 -1.255869742881e-01 -2.688484481700e+01 -1.255869742881e-01 -2.688484481700e+01 -3.727600615589e+01 -3.206872967992e+01
 5.30000000e+01 -3.725048289190e+01 -3.306734922874e+01 -1.264643484826e-01 -2.740004487085e+01 -1.264643484826e-01 -2.740004487085e+01 -3.722561291775e+01 -3.310359225920e+01
 5.40000000e+01 -3.720130948144e+01 -3.410483208097e+01 -1.273377887838e-01 -2.791540219001e+01 -1.273377887838e-01 -2.791540219001e+01 -3.717550294213e+01 -3.413917383683e+01
 5.50000000e+01 -3.715239847986e+01 -3.514316240874e+01 -1.282075349961e-01 -2.843092061391e+01 -1.282075349961e-01 -2.843092061391e+01 -3.712564553594e+01 -3.517551011229e+01
 5.60000000e+01 -3.710372033748e+01 -3.618237351987e+01 -1.290738089449e-01 -2.894660397181e+01 -1.290738089449e-01 -2.894660397181e+01 -3.707601174762e+01 -3.621263117280e+01
 5.70000000e+01 -3.705524708844e+01 -3.722249324142e+01 -1.299368162984e-01 -2.946245608456e+01 -1.299368162984e-01 -2.946245608456e+01 -3.702657420791e+01 -3.725056174446e+01
 5.80000000e+01 -3.700695220841e+01 -3.826354417098e+01 -1.307967482124e-01 -2.997848076566e+01 -1.307967482124e-01 -2.997848076566e+01 -3.697730698856e+01 -3.828932144527e+01
 5.90000000e+01 -3.695881048857e+01 -3.930554392666e+01 -1.316537828125e-01 -3.049468182185e+01 -1.316537828126e-01 -3.049468182185e+01 -3.692818547707e+01 -3.932892503642e+01
 6.00000000e+01 -3.691079792405e+01 -4.034850539241e+01 -1.325080865283e-01 -3.101106305333e+01 -1.325080865283e-01 -3.101106305333e+01 -3.687918626575e+01 -4.036938266912e+01
 6.10000000e+01 -3.686289161514e+01 -4.139243695674e+01 -1.333598152926e-01 -3.152762825364e+01 -1.333598152926e-01 -3.152762825364e+01 -3.683028705342e+01 -4.141070012500e+01
 6.20000000e+01 -3.681506968009e+01 -4.243734274394e+01 -1.342091156169e-01 -3.204438120921e+01 -1.342091156169e-01 -3.204438120921e+01 -3.678146655856e+01 -4.245287904837e+01
 6.30000000e+01 -3.676731117796e+01 -4.348322283571e+01 -1.350561255578e-01 -3.256132569884e+01 -1.350561255578e-01 -3.256132569884e+01 -3.673270444237e+01 -4.349591716985e+01
 6.40000000e+01 -3.671959604062e+01 -4.453007348375e+01 -1.359009755789e-01 -3.307846549293e+01 -1.359009755790e-01 -3.307846549293e+01 -3.668398124089e+01 -4.453980852016e+01
 6.50000000e+01 -3.667190501276e+01 -4.557788731216e+01 -1.367437893253e-01 -3.359580435263e+01 -1.367437893253e-01 -3.359580435263e+01 -3.663527830509e+01 -4.558454363417e+01
 6.60000000e+01 -3.662421959904e+01 -4.662665351002e+01 -1.375846843116e-01 -3.411334602897e+01 -1.375846843117e-01 -3.411334602897e+01 -3.658657774796e+01 -4.663010974496e+01
 6.70000000e+01 -3.657652201758e+01 -4.767635801395e+01 -1.384237725397e-01 -3.463109426184e+01 -1.384237725397e-01 -3.463109426184e+01 -3.653786239786e+01 -4.767649096795e+01
 6.80000000e+01 -3.652879515912e+01 -4.872698368133e+01 -1.392611610460e-01 -3.514905277903e+01 -1.392611610460e-01 -3.514905277903e+01 -3.648911575753e+01 -4.872366847553e+01
 6.90000000e+01 -3.648102255118e+01 -4.977851045402e+01 -1.400969523899e-01 -3.566722529523e+01 -1.400969523900e-01 -3.566722529523e+01 -3.644032196801e+01 -4.977162066223e+01
 7.00000000e+01 -3.643318832650e+01 -5.083091551341e+01 -1.409312450896e-01 -3.618561551102e+01 -1.409312450896e-01 -3.618561551102e+01 -3.639146577678e+01 -5.082032330114e+01
 7.10000000e+01 -3.638527719564e+01 -5.188417342718e+01 -1.417641340061e-01 -3.670422711191e+01 -1.417641340061e-01 -3.670422711191e+01 -3.634253251000e+01 -5.186974969186e+01
 7.20000000e+01 -3.633727442283e+01 -5.293825628820e+01 -1.425957106865e-01 -3.722306376739e+01 -1.425957106865e-01 -3.722306376739e+01 -3.629350804801e+01 -5.291987080066e+01
 7.30000000e+01 -3.628916580492e+01 -5.399313384596e+01 -1.434260636682e-01 -3.774212913001e+01 -1.434260636683e-01 -3.774212913001e+01 -3.624437880382e+01 -5.397065539299e+01
 7.40000000e+01 -3.624093765312e+01 -5.504877363187e+01 -1.442552787463e-01 -3.826142683451e+01 -1.442552787463e-01 -3.826142683451e+01 -3.619513170442e+01 -5.502207015955e+01
 7.50000000e+01 -3.619257677696e+01 -5.610514107755e+01 -1.450834392130e-01 -3.878096049697e+01 -1.450834392130e-01 -3.878096049697e+01 -3.614575417420e+01 -5.607407983551e+01
 7.60000000e+01 -3.614407047050e+01 -5.716219962832e+01 -1.459106260657e-01 -3.930073371405e+01 -1.459106260657e-01 -3.930073371405e+01 -3.609623412066e+01 -5.712664731443e+01
 7.70000000e+01 -3.609540650013e+01 -5.821991085086e+01 -1.467369181951e-01 -3.982075006216e+01 -1.467369181951e-01 -3.982075006216e+01 -3.604655992166e+01 -5.817973375655e+01
 7.80000000e+01 -3.604657309426e+01 -5.927823453651e+01 -1.475623925465e-01 -4.034101309687e+01 -1.475623925465e-01 -4.034101309687e+01 -3.599672041449e+01 -5.923329869234e+01
 7.90000000e+01 -3.599755893407e+01 -6.033712880051e+01 -1.483871242659e-01 -4.086152635215e+01 -1.483871242659e-01 -4.086152635215e+01 -3.594670488606e+01 -6.028730012139e+01
 8.00000000e+01 -3.594835314570e+01 -6.139655017687e+01 -1.492111868266e-01 -4.138229333980e+01 -1.492111868266e-01 -4.138229333980e+01 -3.589650306444e+01 -6.134169460785e+01
 8.10000000e+01 -3.589894529337e+01 -6.245645371076e+01 -1.500346521403e-01 -4.190331754886e+01 -1.500346521403e-01 -4.190331754886e+01 -3.584610511135e+01 -6.239643737174e+01
 8.20000000e+01 -3.584932537335e+01 -6.351679304701e+01 -1.508575906567e-01 -4.242460244507e+01 -1.508575906568e-01 -4.242460244507e+01 -3.579550161551e+01 -6.345148237716e+01
 8.30000000e+01 -3.579948380875e+01 -6.457752051642e+01 -1.516800714498e-01 -4.294615147036e+01 -1.516800714498e-01 -4.294615147036e+01 -3.574468358670e+01 -6.450678241794e+01
 8.40000000e+01 -3.574941144491e+01 -6.563858721974e+01 -1.525021622930e-01 -4.346796804244e+01 -1.525021622930e-01 -4.346796804244e+01 -3.569364245052e+01 -6.556228920013e+01
 8.50000000e+01 -3.569909954525e+01 -6.669994310906e+01 -1.533239297278e-01 -4.399005555428e+01 -1.533239297279e-01 -4.399005555428e+01 -3.564237004358e+01 -6.661795342256e+01
 8.60000000e+01 -3.564853978769e+01 -6.776153706820e+01 -1.541454391204e-01 -4.451241737379e+01 -1.541454391204e-01 -4.451241737379e+01 -3.559085860920e+01 -6.767372485521e+01
 8.70000000e+01 -3.559772426116e+01 -6.882331699043e+01 -1.549667547158e-01 -4.503505684342e+01 -1.549667547158e-01 -4.503505684342e+01 -3.553910079327e+01 -6.872955241563e+01
 8.80000000e+01 -3.554664546267e+01 -6.988522985562e+01 -1.557879396811e-01 -4.555797727980e+01 -1.557879396811e-01 -4.555797727980e+01 -3.548708964060e+01 -6.978538424365e+01
 8.90000000e+01 -3.549529629434e+01 -7.094722180594e+01 -1.566090561466e-01 -4.608118197346e+01 -1.566090561466e-01 -4.608118197346e+01 -3.543481859135e+01 -7.084116777493e+01
 9.00000000e+01 -3.544367006062e+01 -7.200923821957e+01 -1.574301652420e-01 -4.660467418851e+01 -1.574301652421e-01 -4.660467418851e+01 -3.538228147748e+01 -7.189684981248e+01
 9.10000000e+01 -3.539176046562e+01 -7.307122378493e+01 -1.582513271260e-01 -4.712845716238e+01 -1.582513271260e-01 -4.712845716238e+01 -3.532947251952e+01 -7.295237659740e+01
 9.20000000e+01 -3.533956161041e+01 -7.413312257248e+01 -1.590726010151e-01 -4.765253410556e+01 -1.590726010151e-01 -4.765253410556e+01 -3.527638632318e+01 -7.400769387852e+01
 9.30000000e+01 -3.528706799040e+01 -7.519487810676e+01 -1.598940452072e-01 -4.817690820135e+01 -1.598940452072e-01 -4.817690820135e+01 -3.522301787607e+01 -7.506274698051e+01
 9.40000000e+01 -3.523427449244e+01 -7.625643343668e+01 -1.607157171050e-01 -4.870158260568e+01 -1.607157171051e-01 -4.870158260568e+01 -3.516936254426e+01 -7.611748087129e+01
 9.50000000e+01 -3.518117639204e+01 -7.731773120597e+01 -1.615376732348e-01 -4.922656044683e+01 -1.615376732348e-01 -4.922656044683e+01 -3.511541606884e+01 -7.717184022841e+01
 9.60000000e+01 -3.512776935044e+01 -7.837871372212e+01 -1.623599692631e-01 -4.975184482532e+01 -1.623599692631e-01 -4.975184482532e+01 -3.506117456245e+01 -7.822576950436e+01
 9.70000000e+01 -3.507404941132e+01 -7.943932302508e+01 -1.631826600153e-01 -5.027743881364e+01 -1.631826600154e-01 -5.027743881364e+01 -3.500663450543e+01 -7.927921299106e+01
 9.80000000e+01 -3.502001299765e+01 -8.049950095475e+01 -1.640057994875e-01 -5.080334545616e+01 -1.640057994875e-01 -5.080334545616e+01 -3.495179274211e+01 -8.033211488325e+01
 9.90000000e+01 -3.496565690808e+01 -8.155918921830e+01 -1.648294408607e-01 -5.132956776887e+01 -1.648294408607e-01 -5.132956776887e+01 -3.489664647678e+01 -8.138441934118e+01
 1.00000000e+02 -3.491097831322e+01 -8.261832945597e+01 -1.656536365139e-01 -5.185610873928e+01 -1.656536365139e-01 -5.185610873928e+01 -3.484119326946e+01 -8.243607055205e+01
 1.01000000e+02 -3.485597475170e+01 -8.367686330629e+01 -1.664784380353e-01 -5.238297132627e+01 -1.664784380353e-01 -5.238297132627e+01 -3.478543103148e+01 -8.348701279027e+01
 1.02000000e+02 -3.480064412603e+01 -8.473473247099e+01 -1.673038962315e-01 -5.291015845987e+01 -1.673038962315e-01 -5.291015845987e+01 -3.472935802100e+01 -8.453719047763e+01
 1.03000000e+02 -3.474498469814e+01 -8.579187877792e+01 -1.681300611389e-01 -5.343767304121e+01 -1.681300611389e-01 -5.343767304121e+01 -3.467297283816e+01 -8.558654824106e+01
 1.04000000e+02 -3.468899508466e+01 -8.684824424375e+01 -1.689569820332e-01 -5.396551794227e+01 -1.689569820331e-01 -5.396551794227e+01 -3.461627441998e+01 -8.663503097025e+01
 1.05000000e+02 -3.463267425205e+01 -8.790377113497e+01 -1.697847074380e-01 -5.449369600582e+01 -1.697847074380e-01 -5.449369600582e+01 -3.455926203525e+01 -8.768258387371e+01
 1.06000000e+02 -3.457602151138e+01 -8.895840202851e+01 -1.706132851337e-01 -5.502221004525e+01 -1.706132851338e-01 -5.502221004525e+01 -3.450193527897e+01 -8.872915253360e+01
 1.07000000e+02 -3.451903651288e+01 -9.001207987028e+01 -1.714427621663e-01 -5.555106284442e+01 -1.714427621663e-01 -5.555106284442e+01 -3.444429406674e+01 -8.977468295933e+01
 1.08000000e+02 -3.446171924027e+01 -9.106474803329e+01 -1.722731848542e-01 -5.608025715752e+01 -1.722731848542e-01 -5.608025715752e+01 -3.438633862888e+01 -9.081912163989e+01
 1.09000000e+02 -3.440407000473e+01 -9.211635037337e+01 -1.731045987990e-01 -5.660979570895e+01 -1.731045987991e-01 -5.660979570895e+01 -3.432806950421e+01 -9.186241559428e+01
 1.10000000e+02 -3.434608943882e+01 -9.316683128430e+01 -1.739370488907e-01 -5.713968119317e+01 -1.739370488907e-01 -5.713968119317e+01 -3.426948753386e+01 -9.290451242142e+01
 1.11000000e+02 -3.428777848997e+01 -9.421613575146e+01 -1.747705793158e-01 -5.766991627454e+01 -1.747705793159e-01 -5.766991627454e+01 -3.421059385474e+01 -9.394536034777e+01
 1.12000000e+02 -3.422913841380e+01 -9.526420940307e+01 -1.756052335665e-01 -5.820050358719e+01 -1.756052335665e-01 -5.820050358719e+01 -3.415138989277e+01 -9.498490827339e+01
 1.13000000e+02 -3.417017076723e+01 -9.631099856015e+01 -1.764410544477e-01 -5.873144573488e+01 -1.764410544476e-01 -5.873144573488e+01 -3.409187735599e+01 -9.602310581672e+01
 1.14000000e+02 -3.411087740148e+01 -9.735645028566e+01 -1.772780840823e-01 -5.926274529087e+01 -1.772780840823e-01 -5.926274529087e+01 -3.403205822760e+01 -9.705990335760e+01
 1.15000000e+02 -3.405126045459e+01 -9.840051243020e+01 -1.781163639226e-01 -5.979440479771e+01 -1.781163639225e-01 -5.979440479771e+01 -3.397193475855e+01 -9.809525207845e+01
 1.16000000e+02 -3.399132234408e+01 -9.944313367758e+01 -1.789559347532e-01 -6.032642676715e+01 -1.789559347531e-01 -6.032642676715e+01 -3.391150946035e+01 -9.912910400363e+01
 1.17000000e+02 -3.393106575916e+01 -1.004842635867e+02 -1.797968367029e-01 -6.085881367997e+01 -1.797968367029e-01 -6.085881367997e+01 -3.385078509733e+01 -1.001614120372e+02
 1.18000000e+02 -3.387049365295e+01 -1.015238526334e+02 -1.806391092481e-01 -6.139156798581e+01 -1.806391092481e-01 -6.139156798581e+01 -3.378976467918e+01 -1.011921299984e+02
 1.19000000e+02 -3.380960923450e+01 -1.025618522488e+02 -1.814827912221e-01 -6.192469210300e+01 -1.814827912221e-01 -6.192469210300e+01 -3.372845145301e+01 -1.022212126560e+02
 1.20000000e+02 -3.374841596061e+01 -1.035982148563e+02 -1.823279208222e-01 -6.245818841844e+01 -1.823279208224e-01 -6.245818841844e+01 -3.366684889553e+01 -1.032486157601e+02
 1.21000000e+02 -3.368691752758e+01 -1.046328939065e+02 -1.831745356171e-01 -6.299205928741e+01 -1.831745356171e-01 -6.299205928741e+01 -3.360496070510e+01 -1.042742960719e+02
 1.22000000e+02 -3.362511786290e+01 -1.056658439098e+02 -1.840226725533e-01 -6.352630703339e+01 -1.840226725533e-01 -6.352630703339e+01 -3.354279079362e+01 -1.052982113919e+02
 1.23000000e+02 -3.356302111679e+01 -1.066970204673e+02 -1.848723679620e-01 -6.406093394791e+01 -1.848723679620e-01 -6.406093394791e+01 -3.348034327846e+01 -1.063203205867e+02
 1.24000000e+02 -3.350063165360e+01 -1.077263802988e+02 -1.857236575683e-01 -6.459594229037e+01 -1.857236575682e-01 -6.459594229037e+01 -3.341762247421e+01 -1.073405836122e+02
 1.25000000e+02 -3.343795404329e+01 -1.087538812694e+02 -1.865765764963e-01 -6.513133428787e+01 -1.865765764962e-01 -6.513133428787e+01 -3.335463288459e+01 -1.083589615363e+02
 1.26000000e+02 -3.337499305275e+01 -1.097794824143e+02 -1.874311592767e-01 -6.566711213501e+01 -1.874311592768e-01 -6.566711213501e+01 -3.329137919409e+01 -1.093754165592e+02
 1.27000000e+02 -3.331175363720e+01 -1.108031439598e+02 -1.882874398550e-01 -6.620327799373e+01 -1.882874398549e-01 -6.620327799373e+01 -3.322786625984e+01 -1.103899120315e+02
 1.28000000e+02 -3.324824093135e+01 -1.118248273440e+02 -1.891454515968e-01 -6.673983399313e+01 -1.891454515969e-01 -6.673983399313e+01 -3.316409910329e+01 -1.114024124702e+02
 1.29000000e+02 -3.318446024090e+01 -1.128444952344e+02 -1.900052272961e-01 -6.727678222926e+01 -1.900052272964e-01 -6.727678222926e+01 -3.310008290204e+01 -1.124128835738e+02
 1.30000000e+02 -3.312041703375e+01 -1.138621115435e+02 -1.908667991823e-01 -6.781412476495e+01 -1.908667991822e-01 -6.781412476496e+01 -3.303582298161e+01 -1.134212922340e+02
 1.31000000e+02 -3.305611693133e+01 -1.148776414426e+02 -1.917301989258e-01 -6.835186362962e+01 -1.917301989259e-01 -6.835186362962e+01 -3.297132480732e+01 -1.144276065469e+02
 1.32000000e+02 -3.299156570007e+01 -1.158910513734e+02 -1.925954576475e-01 -6.889000081906e+01 -1.925954576474e-01 -6.889000081905e+01 -3.290659397615e+01 -1.154317958213e+02
 1.33000000e+02 -3.292676924283e+01 -1.169023090573e+02 -1.934626059229e-01 -6.942853829525e+01 -1.934626059228e-01 -6.942853829526e+01 -3.284163620877e+01 -1.164338305856e+02
 1.34000000e+02 -3.286173359032e+01 -1.179113835032e+02 -1.943316737912e-01 -6.996747798620e+01 -1.943316737912e-01 -6.996747798620e+01 -3.277645734153e+01 -1.174336825930e+02
 1.35000000e+02 -3.279646489286e+01 -1.189182450131e+02 -1.952026907608e-01 -7.050682178568e+01 -1.952026907607e-01 -7.050682178568e+01 -3.271106331864e+01 -1.184313248250e+02
 1.36000000e+02 -3.273096941189e+01 -1.199228651852e+02 -1.960756858185e-01 -7.104657155307e+01 -1.960756858185e-01 -7.104657155307e+01 -3.264546018429e+01 -1.194267314927e+02
 1.37000000e+02 -3.266525351187e+01 -1.209252169170e+02 -1.969506874333e-01 -7.158672911312e+01 -1.969506874332e-01 -7.158672911312e+01 -3.257965407519e+01 -1.204198780368e+02
 1.38000000e+02 -3.259932365220e+01 -1.219252744042e+02 -1.978277235646e-01 -7.212729625579e+01 -1.978277235645e-01 -7.212729625579e+01 -3.251365121282e+01 -1.214107411265e+02
 1.39000000e+02 -3.253318637913e+01 -1.229230131396e+02 -1.987068216699e-01 -7.266827473599e+01 -1.987068216698e-01 -7.266827473599e+01 -3.244745789616e+01 -1.223992986554e+02
 1.40000000e+02 -3.246684831808e+01 -1.239184099093e+02 -1.995880087113e-01 -7.320966627343e+01 -1.995880087112e-01 -7.320966627343e+01 -3.238108049431e+01 -1.233855297378e+02
 1.41000000e+02 -3.240031616579e+01 -1.249114427881e+02 -2.004713111621e-01 -7.375147255235e+01 -2.004713111621e-01 -7.375147255235e+01 -3.231452543936e+01 -1.243694147020e+02
 1.42000000e+02 -3.233359668285e+01 -1.259020911329e+02 -2.013567550137e-01 -7.429369522136e+01 -2.013567550140e-01 -7.429369522136e+01 -3.224779921948e+01 -1.253509350826e+02
 1.43000000e+02 -3.226669668637e+01 -1.268903355740e+02 -2.022443657835e-01 -7.483633589320e+01 -2.022443657834e-01 -7.483633589320e+01 -3.218090837196e+01 -1.263300736121e+02
 1.44000000e+02 -3.219962304268e+01 -1.278761580065e+02 -2.031341685194e-01 -7.537939614453e+01 -2.031341685195e-01 -7.537939614453e+01 -3.211385947664e+01 -1.273068142108e+02
 1.45000000e+02 -3.213238266033e+01 -1.288595415787e+02 -2.040261878098e-01 -7.592287751574e+01 -2.040261878098e-01 -7.592287751574e+01 -3.204665914935e+01 -1.282811419749e+02
 1.46000000e+02 -3.206498248319e+01 -1.298404706796e+02 -2.049204477916e-01 -7.646678151071e+01 -2.049204477916e-01 -7.646678151071e+01 -3.197931403548e+01 -1.292530431646e+02
 1.47000000e+02 -3.199742948382e+01 -1.308189309272e+02 -2.058169721503e-01 -7.701110959659e+01 -2.058169721503e-01 -7.701110959659e+01 -3.191183080404e+01 -1.302225051907e+02
 1.48000000e+02 -3.192973065694e+01 -1.317949091513e+02 -2.067157841377e-01 -7.755586320364e+01 -2.067157841373e-01 -7.755586320364e+01 -3.184421614143e+01 -1.311895165989e+02
 1.49000000e+02 -3.186189301311e+01 -1.327683933800e+02 -2.076169065693e-01 -7.810104372493e+01 -2.076169065693e-01 -7.810104372493e+01 -3.177647674577e+01 -1.321540670559e+02
 1.50000000e+02 -3.179392357272e+01 -1.337393728220e+02 -2.085203618384e-01 -7.864665251621e+01 -2.085203618382e-01 -7.864665251621e+01 -3.170861932130e+01 -1.331161473317e+02
 1.51000000e+02 -3.172582935998e+01 -1.347078378488e+02 -2.094261719204e-01 -7.919269089564e+01 -2.094261719204e-01 -7.919269089564e+01 -3.164065057279e+01 -1.340757492829e+02
 1.52000000e+02 -3.165761739724e+01 -1.356737799764e+02 -2.103343583826e-01 -7.973916014361e+01 -2.103343583824e-01 -7.973916014361e+01 -3.157257720050e+01 -1.350328658347e+02
 1.53000000e+02 -3.158929469955e+01 -1.366371918459e+02 -2.112449423878e-01 -8.028606150248e+01 -2.112449423879e-01 -8.028606150248e+01 -3.150440589495e+01 -1.359874909620e+02
 1.54000000e+02 -3.152086826929e+01 -1.375980672031e+02 -2.121579447078e-01 -8.083339617643e+01 -2.121579447080e-01 -8.083339617643e+01 -3.143614333213e+01 -1.369396196700e+02
 1.55000000e+02 -3.145234509109e+01 -1.385564008785e+02 -2.130733857258e-01 -8.138116533119e+01 -2.130733857258e-01 -8.138116533119e+01 -3.136779616890e+01 -1.378892479746e+02
 1.56000000e+02 -3.138373212694e+01 -1.395121887640e+02 -2.139912854496e-01 -8.192937009386e+01 -2.139912854498e-01 -8.192937009386e+01 -3.129937103820e+01 -1.388363728813e+02
 1.57000000e+02 -3.131503631153e+01 -1.404654277930e+02 -2.149116635150e-01 -8.247801155269e+01 -2.149116635150e-01 -8.247801155269e+01 -3.123087454519e+01 -1.397809923648e+02
 1.58000000e+02 -3.124626454772e+01 -1.414161159163e+02 -2.158345391984e-01 -8.302709075687e+01 -2.158345391988e-01 -8.302709075687e+01 -3.116231326273e+01 -1.407231053476e+02
 1.59000000e+02 -3.117742370229e+01 -1.423642520800e+02 -2.167599314231e-01 -8.357660871632e+01 -2.167599314229e-01 -8.357660871633e+01 -3.109369372772e+01 -1.416627116776e+02
 1.60000000e+02 -3.110852060182e+01 -1.433098362015e+02 -2.176878587676e-01 -8.412656640148e+01 -2.176878587675e-01 -8.412656640149e+01 -3.102502243720e+01 -1.425998121068e+02
 1.61000000e+02 -3.103956202886e+01 -1.442528691466e+02 -2.186183394771e-01 -8.467696474311e+01 -2.186183394771e-01 -8.467696474311e+01 -3.095630584490e+01 -1.435344082687e+02
 1.62000000e+02 -3.097055471814e+01 -1.451933527044e+02 -2.195513914720e-01 -8.522780463206e+01 -2.195513914723e-01 -8.522780463206e+01 -3.088755035771e+01 -1.444665026553e+02
 1.63000000e+02 -3.090150535318e+01 -1.461312895647e+02 -2.204870323548e-01 -8.577908691911e+01 -2.204870323547e-01 -8.577908691911e+01 -3.081876233269e+01 -1.453960985955e+02
 1.64000000e+02 -3.083242056293e+01 -1.470666832922e+02 -2.214252794231e-01 -8.633081241472e+01 -2.214252794228e-01 -8.633081241472e+01 -3.074994807380e+01 -1.463232002311e+02
 1.65000000e+02 -3.076330691862e+01 -1.479995383025e+02 -2.223661496784e-01 -8.688298188887e+01 -2.223661496783e-01 -8.688298188887e+01 -3.068111382925e+01 -1.472478124946e+02
 1.66000000e+02 -3.069417093087e+01 -1.489298598381e+02 -2.233096598375e-01 -8.743559607084e+01 -2.233096598374e-01 -8.743559607084e+01 -3.061226578861e+01 -1.481699410860e+02
 1.67000000e+02 -3.062501904690e+01 -1.498576539433e+02 -2.242558263401e-01 -8.798865564899e+01 -2.242558263402e-01 -8.798865564899e+01 -3.054341008047e+01 -1.490895924501e+02
 1.68000000e+02 -3.055585764797e+01 -1.507829274400e+02 -2.252046653634e-01 -8.854216127062e+01 -2.252046653632e-01 -8.854216127062e+01 -3.047455276997e+01 -1.500067737535e+02
 1.69000000e+02 -3.048669304694e+01 -1.517056879030e+02 -2.261561928314e-01 -8.909611354173e+01 -2.261561928311e-01 -8.909611354173e+01 -3.040569985658e+01 -1.509214928613e+02
 1.70000000e+02 -3.041753148601e+01 -1.526259436357e+02 -2.271104244263e-01 -8.965051302686e+01 -2.271104244262e-01 -8.965051302686e+01 -3.033685727210e+01 -1.518337583154e+02
 1.71000000e+02 -3.034837913470e+01 -1.535437036458e+02 -2.280673756026e-01 -9.020536024886e+01 -2.280673756027e-01 -9.020536024886e+01 -3.026803087868e+01 -1.527435793112e+02
 1.72000000e+02 -3.027924208789e+01 -1.544589776217e+02 -2.290270615971e-01 -9.076065568877e+01 -2.290270615967e-01 -9.076065568877e+01 -3.019922646716e+01 -1.536509656753e+02
 1.73000000e+02 -3.021012636400e+01 -1.553717759078e+02 -2.299894974416e-01 -9.131639978556e+01 -2.299894974416e-01 -9.131639978555e+01 -3.013044975534e+01 -1.545559278438e+02
 1.74000000e+02 -3.014103790349e+01 -1.562821094817e+02 -2.309546979799e-01 -9.187259293599e+01 -2.309546979800e-01 -9.187259293599e+01 -3.006170638655e+01 -1.554584768394e+02
 1.75000000e+02 -3.007198256725e+01 -1.571899899305e+02 -2.319226778763e-01 -9.242923549446e+01 -2.319226778760e-01 -9.242923549446e+01 -2.999300192833e+01 -1.563586242513e+02
 1.76000000e+02 -3.000296613535e+01 -1.580954294274e+02 -2.328934516335e-01 -9.298632777277e+01 -2.328934516339e-01 -9.298632777276e+01 -2.992434187108e+01 -1.572563822117e+02
 1.77000000e+02 -2.993399430582e+01 -1.589984407097e+02 -2.338670336045e-01 -9.354387003997e+01 -2.338670336046e-01 -9.354387003997e+01 -2.985573162710e+01 -1.581517633769e+02
 1.78000000e+02 -2.986507269359e+01 -1.598990370557e+02 -2.348434380099e-01 -9.410186252222e+01 -2.348434380099e-01 -9.410186252222e+01 -2.978717652959e+01 -1.590447809047e+02
 1.79000000e+02 -2.979620682952e+01 -1.607972322627e+02 -2.358226789516e-01 -9.466030540261e+01 -2.358226789518e-01 -9.466030540260e+01 -2.971868183164e+01 -1.599354484349e+02
 1.80000000e+02 -2.972740215955e+01 -1.616930406257e+02 -2.368047704305e-01 -9.521919882093e+01 -2.368047704309e-01 -9.521919882093e+01 -2.965025270566e+01 -1.608237800692e+02
 1.81000000e+02 -2.965866404413e+01 -1.625864769160e+02 -2.377897263614e-01 -9.577854287362e+01 -2.377897263613e-01 -9.577854287361e+01 -2.958189424258e+01 -1.617097903512e+02
 1.82000000e+02 -2.958999775751e+01 -1.634775563596e+02 -2.387775605916e-01 -9.633833761352e+01 -2.387775605916e-01 -9.633833761352e+01 -2.951361145143e+01 -1.625934942469e+02
 1.83000000e+02 -2.952140848717e+01 -1.643662946175e+02 -2.397682869190e-01 -9.689858304976e+01 -2.397682869193e-01 -9.689858304977e+01 -2.944540925876e+01 -1.634749071266e+02
 1.84000000e+02 -2.945290133371e+01 -1.652527077658e+02 -2.407619191085e-01 -9.745927914761e+01 -2.407619191084e-01 -9.745927914761e+01 -2.937729250840e+01 -1.643540447452e+02
 1.85000000e+02 -2.938448131028e+01 -1.661368122752e+02 -2.417584709121e-01 -9.802042582828e+01 -2.417584709121e-01 -9.802042582828e+01 -2.930926596114e+01 -1.652309232251e+02
 1.86000000e+02 -2.931615334255e+01 -1.670186249928e+02 -2.427579560885e-01 -9.858202296883e+01 -2.427579560885e-01 -9.858202296883e+01 -2.924133429451e+01 -1.661055590381e+02
 1.87000000e+02 -2.924792226862e+01 -1.678981631226e+02 -2.437603884231e-01 -9.914407040202e+01 -2.437603884234e-01 -9.914407040202e+01 -2.917350210282e+01 -1.669779689879e+02
 1.88000000e+02 -2.917979283888e+01 -1.687754442082e+02 -2.447657817515e-01 -9.970656791614e+01 -2.447657817518e-01 -9.970656791614e+01 -2.910577389692e+01 -1.678481701940e+02
 1.89000000e+02 -2.911176971618e+01 -1.696504861142e+02 -2.457741499750e-01 -1.002695152549e+02 -2.457741499749e-01 -1.002695152549e+02 -2.903815410448e+01 -1.687161800748e+02
 1.90000000e+02 -2.904385747595e+01 -1.705233070096e+02 -2.467855070900e-01 -1.008329121173e+02 -2.467855070901e-01 -1.008329121173e+02 -2.897064706997e+01 -1.695820163317e+02
 1.91000000e+02 -2.897606060641e+01 -1.713939253503e+02 -2.477998672078e-01 -1.013967581574e+02 -2.477998672078e-01 -1.013967581574e+02 -2.890325705488e+01 -1.704456969336e+02
 1.92000000e+02 -2.890838350883e+01 -1.722623598641e+02 -2.488172445767e-01 -1.019610529844e+02 -2.488172445767e-01 -1.019610529844e+02 -2.883598823806e+01 -1.713072401029e+02
 1.93000000e+02 -2.884083049796e+01 -1.731286295337e+02 -2.498376536100e-01 -1.025257961623e+02 -2.498376536101e-01 -1.025257961623e+02 -2.876884471590e+01 -1.721666642997e+02
 1.94000000e+02 -2.877340580239e+01 -1.739927535820e+02 -2.508611089088e-01 -1.030909872100e+02 -2.508611089087e-01 -1.030909872100e+02 -2.870183050283e+01 -1.730239882082e+02
 1.95000000e+02 -2.870611356500e+01 -1.748547514571e+02 -2.518876252922e-01 -1.036566256010e+02 -2.518876252921e-01 -1.036566256010e+02 -2.863494953166e+01 -1.738792307231e+02
 1.96000000e+02 -2.863895784351e+01 -1.757146428180e+02 -2.529172178199e-01 -1.042227107632e+02 -2.529172178197e-01 -1.042227107632e+02 -2.856820565407e+01 -1.747324109365e+02
 1.97000000e+02 -2.857194261110e+01 -1.765724475212e+02 -2.539499018227e-01 -1.047892420791e+02 -2.539499018233e-01 -1.047892420791e+02 -2.850160264118e+01 -1.755835481256e+02
 1.98000000e+02 -2.850507175702e+01 -1.774281856074e+02 -2.549856929309e-01 -1.053562188856e+02 -2.549856929306e-01 -1.053562188856e+02 -2.843514418415e+01 -1.764326617396e+02
 1.99000000e+02 -2.843834908725e+01 -1.782818772873e+02 -2.560246071040e-01 -1.059236404736e+02 -2.560246071042e-01 -1.059236404736e+02 -2.836883389464e+01 -1.772797713885e+02
 2.00000000e+02 -2.837177832517e+01 -1.791335429314e+02 -2.570666606631e-01 -1.064915060882e+02 -2.570666606630e-01 -1.064915060882e+02 -2.830267530567e+01 -1.781248968319e+02
 2.01000000e+02 -2.830536311253e+01 -1.799832030568e+02 -2.581118703177e-01 -1.070598149287e+02 -2.581118703175e-01 -1.070598149287e+02 -2.823667187217e+01 -1.789680579679e+02
 2.02000000e+02 -2.823910700992e+01 +1.791691216841e+02 -2.591602532059e-01 -1.076285661480e+02 -2.591602532059e-01 -1.076285661480e+02 -2.817082697172e+01 -1.798092748223e+02
 2.03000000e+02 -2.817301349792e+01 +1.783234105141e+02 -2.602118269205e-01 -1.081977588531e+02 -2.602118269203e-01 -1.081977588531e+02 -2.810514390538e+01 +1.793514324603e+02
 2.04000000e+02 -2.810708597775e+01 +1.774796425419e+02 -2.612666095507e-01 -1.087673921046e+02 -2.612666095509e-01 -1.087673921046e+02 -2.803962589846e+01 +1.785140436272e+02
 2.05000000e+02 -2.804132777230e+01 +1.766377967717e+02 -2.623246197107e-01 -1.093374649169e+02 -2.623246197113e-01 -1.093374649169e+02 -2.797427610131e+01 +1.776785383263e+02
 2.06000000e+02 -2.797574212699e+01 +1.757978521139e+02 -2.633858765859e-01 -1.099079762577e+02 -2.633858765862e-01 -1.099079762577e+02 -2.790909759013e+01 +1.768448961145e+02
 2.07000000e+02 -2.791033221074e+01 +1.749597873924e+02 -2.644503999606e-01 -1.104789250484e+02 -2.644503999602e-01 -1.104789250484e+02 -2.784409336793e+01 +1.760130964661e+02
 2.08000000e+02 -2.784510111693e+01 +1.741235813541e+02 -2.655182102600e-01 -1.110503101637e+02 -2.655182102598e-01 -1.110503101637e+02 -2.777926636545e+01 +1.751831187806e+02
 2.09000000e+02 -2.778005186448e+01 +1.732892126782e+02 -2.665893286000e-01 -1.116221304317e+02 -2.665893285998e-01 -1.116221304317e+02 -2.771461944190e+01 +1.743549423913e+02
 2.10000000e+02 -2.771518739876e+01 +1.724566599817e+02 -2.676637768131e-01 -1.121943846337e+02 -2.676637768134e-01 -1.121943846337e+02 -2.765015538609e+01 +1.735285465699e+02
 2.11000000e+02 -2.765051059274e+01 +1.716259018288e+02 -2.687415775029e-01 -1.127670715042e+02 -2.687415775030e-01 -1.127670715042e+02 -2.758587691731e+01 +1.727039105355e+02
 2.12000000e+02 -2.758602424791e+01 +1.707969167362e+02 -2.698227540800e-01 -1.133401897306e+02 -2.698227540802e-01 -1.133401897306e+02 -2.752178668626e+01 +1.718810134593e+02
 2.13000000e+02 -2.752173109552e+01 +1.699696831812e+02 -2.709073308133e-01 -1.139137379535e+02 -2.709073308140e-01 -1.139137379535e+02 -2.745788727610e+01 +1.710598344715e+02
 2.14000000e+02 -2.745763379756e+01 +1.691441796066e+02 -2.719953328727e-01 -1.144877147664e+02 -2.719953328725e-01 -1.144877147664e+02 -2.739418120348e+01 +1.702403526660e+02
 2.15000000e+02 -2.739373494796e+01 +1.683203844268e+02 -2.730867863753e-01 -1.150621187156e+02 -2.730867863755e-01 -1.150621187156e+02 -2.733067091941e+01 +1.694225471061e+02
 2.16000000e+02 -2.733003707357e+01 +1.674982760331e+02 -2.741817184367e-01 -1.156369483003e+02 -2.741817184364e-01 -1.156369483003e+02 -2.726735881051e+01 +1.686063968291e+02
 2.17000000e+02 -2.726654263542e+01 +1.666778327994e+02 -2.752801572205e-01 -1.162122019723e+02 -2.752801572203e-01 -1.162122019723e+02 -2.720424719989e+01 +1.677918808498e+02
 2.18000000e+02 -2.720325402983e+01 +1.658590330854e+02 -2.763821319880e-01 -1.167878781361e+02 -2.763821319876e-01 -1.167878781361e+02 -2.714133834822e+01 +1.669789781663e+02
 2.19000000e+02 -2.714017358956e+01 +1.650418552419e+02 -2.774876731537e-01 -1.173639751488e+02 -2.774876731538e-01 -1.173639751488e+02 -2.707863445492e+01 +1.661676677624e+02
 2.20000000e+02 -2.707730358491e+01 +1.642262776145e+02 -2.785968123340e-01 -1.179404913198e+02 -2.785968123345e-01 -1.179404913198e+02 -2.701613765908e+01 +1.653579286109e+02
 2.21000000e+02 -2.701464622502e+01 +1.634122785467e+02 -2.797095824092e-01 -1.185174249112e+02 -2.797095824095e-01 -1.185174249112e+02 -2.695385004066e+01 +1.645497396774e+02
 2.22000000e+02 -2.695220365898e+01 +1.625998363839e+02 -2.808260175754e-01 -1.190947741371e+02 -2.808260175750e-01 -1.190947741371e+02 -2.689177362148e+01 +1.637430799224e+02
 2.23000000e+02 -2.688997797696e+01 +1.617889294752e+02 -2.819461534017e-01 -1.196725371643e+02 -2.819461534017e-01 -1.196725371643e+02 -2.682991036646e+01 +1.629379283042e+02
 2.24000000e+02 -2.682797121157e+01 +1.609795361767e+02 -2.830700268931e-01 -1.202507121112e+02 -2.830700268934e-01 -1.202507121112e+02 -2.676826218461e+01 +1.621342637805e+02
 2.25000000e+02 -2.676618533889e+01 +1.601716348541e+02 -2.841976765520e-01 -1.208292970489e+02 -2.841976765515e-01 -1.208292970489e+02 -2.670683093021e+01 +1.613320653103e+02
 2.26000000e+02 -2.670462227981e+01 +1.593652038835e+02 -2.853291424338e-01 -1.214082899999e+02 -2.853291424336e-01 -1.214082899999e+02 -2.664561840393e+01 +1.605313118555e+02
 2.27000000e+02 -2.664328390120e+01 +1.585602216539e+02 -2.864644662152e-01 -1.219876889391e+02 -2.864644662150e-01 -1.219876889390e+02 -2.658462635400e+01 +1.597319823824e+02
 2.28000000e+02 -2.658217201712e+01 +1.577566665679e+02 -2.876036912596e-01 -1.225674917927e+02 -2.876036912594e-01 -1.225674917927e+02 -2.652385647726e+01 +1.589340558618e+02
 2.29000000e+02 -2.652128839013e+01 +1.569545170435e+02 -2.887468626829e-01 -1.231476964391e+02 -2.887468626823e-01 -1.231476964391e+02 -2.646331042045e+01 +1.581375112707e+02
 2.30000000e+02 -2.646063473245e+01 +1.561537515149e+02 -2.898940274168e-01 -1.237283007079e+02 -2.898940274169e-01 -1.237283007079e+02 -2.640298978126e+01 +1.573423275916e+02
 2.31000000e+02 -2.640021270724e+01 +1.553543484321e+02 -2.910452342865e-01 -1.243093023803e+02 -2.910452342862e-01 -1.243093023803e+02 -2.634289610951e+01 +1.565484838137e+02
 2.32000000e+02 -2.634002392991e+01 +1.545562862612e+02 -2.922005340680e-01 -1.248906991889e+02 -2.922005340688e-01 -1.248906991889e+02 -2.628303090853e+01 +1.557559589319e+02
 2.33000000e+02 -2.628006996926e+01 +1.537595434865e+02 -2.933599795772e-01 -1.254724888174e+02 -2.933599795772e-01 -1.254724888174e+02 -2.622339563597e+01 +1.549647319470e+02
 2.34000000e+02 -2.622035234894e+01 +1.529640986074e+02 -2.945236257254e-01 -1.260546689006e+02 -2.945236257254e-01 -1.260546689006e+02 -2.616399170535e+01 +1.541747818648e+02
 2.35000000e+02 -2.616087254856e+01 +1.521699301397e+02 -2.956915296041e-01 -1.266372370242e+02 -2.956915296045e-01 -1.266372370242e+02 -2.610482048717e+01 +1.533860876957e+02
 2.36000000e+02 -2.610163200511e+01 +1.513770166148e+02 -2.968637505615e-01 -1.272201907248e+02 -2.968637505623e-01 -1.272201907248e+02 -2.604588330997e+01 +1.525986284529e+02
 2.37000000e+02 -2.604263211413e+01 +1.505853365777e+02 -2.980403502702e-01 -1.278035274893e+02 -2.980403502707e-01 -1.278035274893e+02 -2.598718146184e+01 +1.518123831518e+02
 2.38000000e+02 -2.598387423120e+01 +1.497948685879e+02 -2.992213928177e-01 -1.283872447552e+02 -2.992213928178e-01 -1.283872447552e+02 -2.592871619142e+01 +1.510273308088e+02
 2.39000000e+02 -2.592535967311e+01 +1.490055912158e+02 -3.004069447724e-01 -1.289713399103e+02 -3.004069447727e-01 -1.289713399103e+02 -2.587048870929e+01 +1.502434504382e+02
 2.40000000e+02 -2.586708971930e+01 +1.482174830430e+02 -3.015970752774e-01 -1.295558102923e+02 -3.015970752777e-01 -1.295558102923e+02 -2.581250018927e+01 +1.494607210525e+02
 2.41000000e+02 -2.580906561310e+01 +1.474305226596e+02 -3.027918561207e-01 -1.301406531886e+02 -3.027918561211e-01 -1.301406531886e+02 -2.575475176956e+01 +1.486791216584e+02
 2.42000000e+02 -2.575128856326e+01 +1.466446886628e+02 -3.039913618252e-01 -1.307258658362e+02 -3.039913618248e-01 -1.307258658362e+02 -2.569724455422e+01 +1.478986312558e+02
 2.43000000e+02 -2.569375974516e+01 +1.458599596551e+02 -3.051956697285e-01 -1.313114454215e+02 -3.051956697290e-01 -1.313114454215e+02 -2.563997961433e+01 +1.471192288351e+02
 2.44000000e+02 -2.563648030234e+01 +1.450763142417e+02 -3.064048600724e-01 -1.318973890798e+02 -3.064048600721e-01 -1.318973890798e+02 -2.558295798942e+01 +1.463408933744e+02
 2.45000000e+02 -2.557945134775e+01 +1.442937310280e+02 -3.076190160785e-01 -1.324836938953e+02 -3.076190160774e-01 -1.324836938953e+02 -2.552618068885e+01 +1.455636038376e+02
 2.46000000e+02 -2.552267396534e+01 +1.435121886178e+02 -3.088382240434e-01 -1.330703569004e+02 -3.088382240434e-01 -1.330703569005e+02 -2.546964869308e+01 +1.447873391705e+02
 2.47000000e+02 -2.546614921148e+01 +1.427316656107e+02 -3.100625734263e-01 -1.336573750759e+02 -3.100625734260e-01 -1.336573750759e+02 -2.541336295510e+01 +1.440120782991e+02
 2.48000000e+02 -2.540987811628e+01 +1.419521405991e+02 -3.112921569258e-01 -1.342447453501e+02 -3.112921569261e-01 -1.342447453501e+02 -2.535732440189e+01 +1.432378001256e+02
 2.49000000e+02 -2.535386168526e+01 +1.411735921651e+02 -3.125270705789e-01 -1.348324645989e+02 -3.125270705782e-01 -1.348324645989e+02 -2.530153393589e+01 +1.424644835256e+02
 2.50000000e+02 -2.529810090071e+01 +1.403959988785e+02 -3.137674138424e-01 -1.354205296449e+02 -3.137674138431e-01 -1.354205296449e+02 -2.524599243627e+01 +1.416921073448e+02
 2.51000000e+02 -2.524259672332e+01 +1.396193392929e+02 -3.150132896835e-01 -1.360089372577e+02 -3.150132896837e-01 -1.360089372577e+02 -2.519070076067e+01 +1.409206503962e+02
 2.52000000e+02 -2.518735009369e+01 +1.388435919438e+02 -3.162648046694e-01 -1.365976841527e+02 -3.162648046688e-01 -1.365976841526e+02 -2.513565974655e+01 +1.401500914559e+02
 2.53000000e+02 -2.513236193393e+01 +1.380687353443e+02 -3.175220690500e-01 -1.371867669910e+02 -3.175220690504e-01 -1.371867669910e+02 -2.508087021275e+01 +1.393804092595e+02
 2.54000000e+02 -2.507763314923e+01 +1.372947479828e+02 -3.187851968571e-01 -1.377761823791e+02 -3.187851968576e-01 -1.377761823791e+02 -2.502633296108e+01 +1.386115824998e+02
 2.55000000e+02 -2.502316462956e+01 +1.365216083196e+02 -3.200543059802e-01 -1.383659268678e+02 -3.200543059800e-01 -1.383659268678e+02 -2.497204877795e+01 +1.378435898219e+02
 2.56000000e+02 -2.496895725121e+01 +1.357492947835e+02 -3.213295182566e-01 -1.389559969522e+02 -3.213295182568e-01 -1.389559969522e+02 -2.491801843598e+01 +1.370764098205e+02
 2.57000000e+02 -2.491501187854e+01 +1.349777857690e+02 -3.226109595610e-01 -1.395463890709e+02 -3.226109595604e-01 -1.395463890709e+02 -2.486424269561e+01 +1.363100210358e+02
 2.58000000e+02 -2.486132936584e+01 +1.342070596327e+02 -3.238987598878e-01 -1.401370996050e+02 -3.238987598877e-01 -1.401370996050e+02 -2.481072230690e+01 +1.355444019499e+02
 2.59000000e+02 -2.480791055884e+01 +1.334370946904e+02 -3.251930534351e-01 -1.407281248782e+02 -3.251930534351e-01 -1.407281248782e+02 -2.475745801118e+01 +1.347795309836e+02
 2.60000000e+02 -2.475475629669e+01 +1.326678692139e+02 -3.264939786873e-01 -1.413194611554e+02 -3.264939786876e-01 -1.413194611554e+02 -2.470445054287e+01 +1.340153864923e+02
 2.61000000e+02 -2.470186741373e+01 +1.318993614281e+02 -3.278016784956e-01 -1.419111046424e+02 -3.278016784951e-01 -1.419111046424e+02 -2.465170063126e+01 +1.332519467631e+02
 2.62000000e+02 -2.464924474122e+01 +1.311315495076e+02 -3.291163001490e-01 -1.425030514847e+02 -3.291163001498e-01 -1.425030514847e+02 -2.459920900240e+01 +1.324891900107e+02
 2.63000000e+02 -2.459688910954e+01 +1.303644115742e+02 -3.304379954678e-01 -1.430952977672e+02 -3.304379954686e-01 -1.430952977672e+02 -2.454697638091e+01 +1.317270943748e+02
 2.64000000e+02 -2.454480134984e+01 +1.295979256936e+02 -3.317669208527e-01 -1.436878395129e+02 -3.317669208532e-01 -1.436878395129e+02 -2.449500349210e+01 +1.309656379158e+02
 2.65000000e+02 -2.449298229615e+01 +1.288320698735e+02 -3.331032373730e-01 -1.442806726822e+02 -3.331032373739e-01 -1.442806726822e+02 -2.444329106369e+01 +1.302047986122e+02
 2.66000000e+02 -2.444143278733e+01 +1.280668220602e+02 -3.344471108250e-01 -1.448737931719e+02 -3.344471108253e-01 -1.448737931719e+02 -2.439183982806e+01 +1.294445543585e+02
 2.67000000e+02 -2.439015366929e+01 +1.273021601367e+02 -3.357987117930e-01 -1.454671968142e+02 -3.357987117934e-01 -1.454671968142e+02 -2.434065052416e+01 +1.286848829602e+02
 2.68000000e+02 -2.433914579691e+01 +1.265380619204e+02 -3.371582157141e-01 -1.460608793757e+02 -3.371582157138e-01 -1.460608793757e+02 -2.428972389976e+01 +1.279257621334e+02
 2.69000000e+02 -2.428841003628e+01 +1.257745051612e+02 -3.385258029172e-01 -1.466548365561e+02 -3.385258029180e-01 -1.466548365561e+02 -2.423906071354e+01 +1.271671695004e+02
 2.70000000e+02 -2.423794726692e+01 +1.250114675396e+02 -3.399016586874e-01 -1.472490639873e+02 -3.399016586886e-01 -1.472490639873e+02 -2.418866173731e+01 +1.264090825889e+02
 2.71000000e+02 -2.418775838399e+01 +1.242489266652e+02 -3.412859732979e-01 -1.478435572321e+02 -3.412859732994e-01 -1.478435572321e+02 -2.413852775831e+01 +1.256514788291e+02
 2.72000000e+02 -2.413784430055e+01 +1.234868600758e+02 -3.426789420452e-01 -1.484383117829e+02 -3.426789420462e-01 -1.484383117829e+02 -2.408865958150e+01 +1.248943355522e+02
 2.73000000e+02 -2.408820594995e+01 +1.227252452362e+02 -3.440807652794e-01 -1.490333230605e+02 -3.440807652802e-01 -1.490333230605e+02 -2.403905803198e+01 +1.241376299896e+02
 2.74000000e+02 -2.403884428819e+01 +1.219640595377e+02 -3.454916484297e-01 -1.496285864125e+02 -3.454916484295e-01 -1.496285864125e+02 -2.398972395733e+01 +1.233813392707e+02
 2.75000000e+02 -2.398976029638e+01 +1.212032802976e+02 -3.469118020032e-01 -1.502240971124e+02 -3.469118020047e-01 -1.502240971124e+02 -2.394065823023e+01 +1.226254404226e+02
 2.76000000e+02 -2.394095498325e+01 +1.204428847605e+02 -3.483414416091e-01 -1.508198503574e+02 -3.483414416096e-01 -1.508198503574e+02 -2.389186175086e+01 +1.218699103704e+02
 2.77000000e+02 -2.389242938754e+01 +1.196828500971e+02 -3.497807879343e-01 -1.514158412674e+02 -3.497807879341e-01 -1.514158412674e+02 -2.384333544952e+01 +1.211147259364e+02
 2.78000000e+02 -2.384418458076e+01 +1.189231534070e+02 -3.512300667390e-01 -1.520120648833e+02 -3.512300667378e-01 -1.520120648833e+02 -2.379508028928e+01 +1.203598638413e+02
 2.79000000e+02 -2.379622166972e+01 +1.181637717193e+02 -3.526895088221e-01 -1.526085161654e+02 -3.526895088223e-01 -1.526085161654e+02 -2.374709726880e+01 +1.196053007043e+02
 2.80000000e+02 -2.374854179921e+01 +1.174046819950e+02 -3.541593499910e-01 -1.532051899914e+02 -3.541593499910e-01 -1.532051899914e+02 -2.369938742485e+01 +1.188510130461e+02
 2.81000000e+02 -2.370114615484e+01 +1.166458611292e+02 -3.556398310032e-01 -1.538020811549e+02 -3.556398310034e-01 -1.538020811549e+02 -2.365195183526e+01 +1.180969772891e+02
 2.82000000e+02 -2.365403596556e+01 +1.158872859553e+02 -3.571311975032e-01 -1.543991843637e+02 -3.571311975026e-01 -1.543991843637e+02 -2.360479162182e+01 +1.173431697619e+02
 2.83000000e+02 -2.360721250683e+01 +1.151289332478e+02 -3.586336999462e-01 -1.549964942377e+02 -3.586336999459e-01 -1.549964942377e+02 -2.355790795303e+01 +1.165895667016e+02
 2.84000000e+02 -2.356067710311e+01 +1.143707797272e+02 -3.601475934980e-01 -1.555940053071e+02 -3.601475934992e-01 -1.555940053071e+02 -2.351130204718e+01 +1.158361442582e+02
 2.85000000e+02 -2.351443113103e+01 +1.136128020656e+02 -3.616731379313e-01 -1.561917120101e+02 -3.616731379319e-01 -1.561917120101e+02 -2.346497517537e+01 +1.150828784988e+02
 2.86000000e+02 -2.346847602221e+01 +1.128549768921e+02 -3.632105974903e-01 -1.567896086915e+02 -3.632105974892e-01 -1.567896086915e+02 -2.341892866441e+01 +1.143297454138e+02
 2.87000000e+02 -2.342281326625e+01 +1.120972808000e+02 -3.647602407477e-01 -1.573876896001e+02 -3.647602407476e-01 -1.573876896001e+02 -2.337316390011e+01 +1.135767209229e+02
 2.88000000e+02 -2.337744441381e+01 +1.113396903540e+02 -3.663223404398e-01 -1.579859488869e+02 -3.663223404401e-01 -1.579859488869e+02 -2.332768233028e+01 +1.128237808814e+02
 2.89000000e+02 -2.333237107949e+01 +1.105821820991e+02 -3.678971732796e-01 -1.585843806025e+02 -3.678971732796e-01 -1.585843806025e+02 -2.328248546798e+01 +1.120709010895e+02
 2.90000000e+02 -2.328759494508e+01 +1.098247325697e+02 -3.694850197479e-01 -1.591829786955e+02 -3.694850197484e-01 -1.591829786954e+02 -2.323757489464e+01 +1.113180573007e+02
 2.91000000e+02 -2.324311776256e+01 +1.090673182996e+02 -3.710861638634e-01 -1.597817370096e+02 -3.710861638639e-01 -1.597817370096e+02 -2.319295226337e+01 +1.105652252312e+02
 2.92000000e+02 -2.319894135716e+01 +1.083099158343e+02 -3.727008929270e-01 -1.603806492821e+02 -3.727008929267e-01 -1.603806492821e+02 -2.314861930225e+01 +1.098123805716e+02
 2.93000000e+02 -2.315506763064e+01 +1.075525017423e+02 -3.743294972439e-01 -1.609797091408e+02 -3.743294972439e-01 -1.609797091408e+02 -2.310457781748e+01 +1.090594989981e+02
 2.94000000e+02 -2.311149856419e+01 +1.067950526297e+02 -3.759722698201e-01 -1.615789101021e+02 -3.759722698205e-01 -1.615789101021e+02 -2.306082969682e+01 +1.083065561865e+02
 2.95000000e+02 -2.306823622171e+01 +1.060375451527e+02 -3.776295060262e-01 -1.621782455689e+02 -3.776295060264e-01 -1.621782455689e+02 -2.301737691280e+01 +1.075535278256e+02
 2.96000000e+02 -2.302528275294e+01 +1.052799560365e+02 -3.793015032328e-01 -1.627777088275e+02 -3.793015032306e-01 -1.627777088275e+02 -2.297422152607e+01 +1.068003896330e+02
 2.97000000e+02 -2.298264039647e+01 +1.045222620894e+02 -3.809885604248e-01 -1.633772930462e+02 -3.809885604258e-01 -1.633772930462e+02 -2.293136568864e+01 +1.060471173721e+02
 2.98000000e+02 -2.294031148293e+01 +1.037644402225e+02 -3.826909777799e-01 -1.639769912721e+02 -3.826909777799e-01 -1.639769912721e+02 -2.288881164726e+01 +1.052936868699e+02
 2.99000000e+02 -2.289829843784e+01 +1.030064674692e+02 -3.844090562063e-01 -1.645767964295e+02 -3.844090562041e-01 -1.645767964295e+02 -2.284656174661e+01 +1.045400740361e+02
 3.00000000e+02 -2.285660378488e+01 +1.022483210052e+02 -3.861430968580e-01 -1.651767013171e+02 -3.861430968580e-01 -1.651767013171e+02 -2.280461843249e+01 +1.037862548841e+02
 3.01000000e+02 -2.281523014873e+01 +1.014899781719e+02 -3.878934006190e-01 -1.657766986059e+02 -3.878934006198e-01 -1.657766986059e+02 -2.276298425509e+01 +1.030322055531e+02
 3.02000000e+02 -2.277418025789e+01 +1.007314164994e+02 -3.896602675360e-01 -1.663767808373e+02 -3.896602675363e-01 -1.663767808373e+02 -2.272166187210e+01 +1.022779023322e+02
 3.03000000e+02 -2.273345694764e+01 +9.997261373166e+01 -3.914439962260e-01 -1.669769404204e+02 -3.914439962261e-01 -1.669769404204e+02 -2.268065405170e+01 +1.015233216842e+02
 3.04000000e+02 -2.269306316270e+01 +9.921354785320e+01 -3.932448832477e-01 -1.675771696305e+02 -3.932448832479e-01 -1.675771696305e+02 -2.263996367562e+01 +1.007684402739e+02
 3.05000000e+02 -2.265300195990e+01 +9.845419711688e+01 -3.950632224276e-01 -1.681774606066e+02 -3.950632224280e-01 -1.681774606066e+02 -2.259959374203e+01 +1.000132349957e+02
 3.06000000e+02 -2.261327651067e+01 +9.769454007471e+01 -3.968993041489e-01 -1.687778053501e+02 -3.968993041498e-01 -1.687778053501e+02 -2.255954736827e+01 +9.925768300233e+01
 3.07000000e+02 -2.257389010345e+01 +9.693455560677e+01 -3.987534146046e-01 -1.693781957225e+02 -3.987534146044e-01 -1.693781957225e+02 -2.251982779355e+01 +9.850176173848e+01
 3.08000000e+02 -2.253484614608e+01 +9.617422295656e+01 -4.006258350063e-01 -1.699786234443e+02 -4.006258350059e-01 -1.699786234443e+02 -2.248043838150e+01 +9.774544897198e+01
 3.09000000e+02 -2.249614816764e+01 +9.541352176303e+01 -4.025168407501e-01 -1.705790800933e+02 -4.025168407491e-01 -1.705790800933e+02 -2.244138262254e+01 +9.698872282940e+01
 3.10000000e+02 -2.245779982067e+01 +9.465243209819e+01 -4.044267005436e-01 -1.711795571032e+02 -4.044267005442e-01 -1.711795571032e+02 -2.240266413597e+01 +9.623156183253e+01
 3.11000000e+02 -2.241980488262e+01 +9.389093450381e+01 -4.063556754935e-01 -1.717800457627e+02 -4.063556754946e-01 -1.717800457627e+02 -2.236428667226e+01 +9.547394493609e+01
 3.12000000e+02 -2.238216725760e+01 +9.312901002980e+01 -4.083040181467e-01 -1.723805372150e+02 -4.083040181465e-01 -1.723805372150e+02 -2.232625411453e+01 +9.471585156737e+01
 3.13000000e+02 -2.234489097755e+01 +9.236664027672e+01 -4.102719714908e-01 -1.729810224564e+02 -4.102719714910e-01 -1.729810224564e+02 -2.228857048043e+01 +9.395726166856e+01
 3.14000000e+02 -2.230798020332e+01 +9.160380743564e+01 -4.122597679201e-01 -1.735814923366e+02 -4.122597679204e-01 -1.735814923366e+02 -2.225123992325e+01 +9.319815573826e+01
 3.15000000e+02 -2.227143922548e+01 +9.084049433351e+01 -4.142676281517e-01 -1.741819375585e+02 -4.142676281518e-01 -1.741819375585e+02 -2.221426673315e+01 +9.243851487745e+01
 3.16000000e+02 -2.223527246471e+01 +9.007668447712e+01 -4.162957601044e-01 -1.747823486783e+02 -4.162957601044e-01 -1.747823486783e+02 -2.217765533790e+01 +9.167832083480e+01
 3.17000000e+02 -2.219948447213e+01 +8.931236210061e+01 -4.183443577465e-01 -1.753827161063e+02 -4.183443577468e-01 -1.753827161063e+02 -2.214141030328e+01 +9.091755605468e+01
 3.18000000e+02 -2.216407992894e+01 +8.854751221224e+01 -4.204135998974e-01 -1.759830301078e+02 -4.204135998972e-01 -1.759830301078e+02 -2.210553633344e+01 +9.015620372641e+01
 3.19000000e+02 -2.212906364613e+01 +8.778212064481e+01 -4.225036489973e-01 -1.765832808042e+02 -4.225036489978e-01 -1.765832808042e+02 -2.207003827039e+01 +8.939424783473e+01
 3.20000000e+02 -2.209444056351e+01 +8.701617410420e+01 -4.246146498515e-01 -1.771834581752e+02 -4.246146498496e-01 -1.771834581752e+02 -2.203492109366e+01 +8.863167321177e+01
 3.21000000e+02 -2.206021574837e+01 +8.624966022272e+01 -4.267467283179e-01 -1.777835520608e+02 -4.267467283173e-01 -1.777835520608e+02 -2.200018991925e+01 +8.786846558957e+01
 3.22000000e+02 -2.202639439387e+01 +8.548256761042e+01 -4.288999900121e-01 -1.783835521639e+02 -4.288999900124e-01 -1.783835521639e+02 -2.196584999821e+01 +8.710461165515e+01
 3.23000000e+02 -2.199298181697e+01 +8.471488590889e+01 -4.310745189403e-01 -1.789834480535e+02 -4.310745189397e-01 -1.789834480535e+02 -2.193190671478e+01 +8.634009910534e+01
 3.24000000e+02 -2.195998345566e+01 +8.394660584469e+01 -4.332703761333e-01 -1.795832291685e+02 -4.332703761316e-01 -1.795832291685e+02 -2.189836558419e+01 +8.557491670264e+01
 3.25000000e+02 -2.192740486608e+01 +8.317771928475e+01 -4.354875982738e-01 +1.798171151779e+02 -4.354875982724e-01 +1.798171151779e+02 -2.186523224966e+01 +8.480905433202e+01
 3.26000000e+02 -2.189525171890e+01 +8.240821929141e+01 -4.377261962847e-01 +1.792175957939e+02 -4.377261962855e-01 +1.792175957939e+02 -2.183251247935e+01 +8.404250305891e+01
 3.27000000e+02 -2.186352979518e+01 +8.163810017707e+01 -4.399861539341e-01 +1.786182236032e+02 -4.399861539347e-01 +1.786182236032e+02 -2.180021216233e+01 +8.327525518675e+01
 3.28000000e+02 -2.183224498185e+01 +8.086735756068e+01 -4.422674264171e-01 +1.780190096391e+02 -4.422674264191e-01 +1.780190096391e+02 -2.176833730433e+01 +8.250730431404e+01
 3.29000000e+02 -2.180140326648e+01 +8.009598842244e+01 -4.445699389565e-01 +1.774199650380e+02 -4.445699389556e-01 +1.774199650380e+02 -2.173689402273e+01 +8.173864539369e+01
 3.30000000e+02 -2.177101073159e+01 +7.932399115886e+01 -4.468935853959e-01 +1.768211010317e+02 -4.468935853974e-01 +1.768211010317e+02 -2.170588854109e+01 +8.096927478962e+01
 3.31000000e+02 -2.174107354835e+01 +7.855136563766e+01 -4.492382268361e-01 +1.762224289399e+02 -4.492382268368e-01 +1.762224289398e+02 -2.167532718303e+01 +8.019919033524e+01
 3.32000000e+02 -2.171159796964e+01 +7.777811325061e+01 -4.516036902591e-01 +1.756239601609e+02 -4.516036902584e-01 +1.756239601609e+02 -2.164521636545e+01 +7.942839138909e+01
 3.33000000e+02 -2.168259032261e+01 +7.700423696754e+01 -4.539897671981e-01 +1.750257061628e+02 -4.539897671969e-01 +1.750257061628e+02 -2.161556259138e+01 +7.865687889081e+01
 3.34000000e+02 -2.165405700057e+01 +7.622974138598e+01 -4.563962124594e-01 +1.744276784730e+02 -4.563962124621e-01 +1.744276784730e+02 -2.158637244179e+01 +7.788465541574e+01
 3.35000000e+02 -2.162600445425e+01 +7.545463278194e+01 -4.588227428698e-01 +1.738298886675e+02 -4.588227428695e-01 +1.738298886675e+02 -2.155765256714e+01 +7.711172522808e+01
 3.36000000e+02 -2.159843918257e+01 +7.467891915767e+01 -4.612690360735e-01 +1.732323483593e+02 -4.612690360734e-01 +1.732323483593e+02 -2.152940967814e+01 +7.633809433131e+01
 3.37000000e+02 -2.157136772259e+01 +7.390261028645e+01 -4.637347294124e-01 +1.726350691863e+02 -4.637347294119e-01 +1.726350691863e+02 -2.150165053594e+01 +7.556377051820e+01
 3.38000000e+02 -2.154479663913e+01 +7.312571775664e+01 -4.662194188738e-01 +1.720380627984e+02 -4.662194188732e-01 +1.720380627984e+02 -2.147438194150e+01 +7.478876341634e+01
 3.39000000e+02 -2.151873251355e+01 +7.234825501181e+01 -4.687226580940e-01 +1.714413408433e+02 -4.687226580935e-01 +1.714413408433e+02 -2.144761072468e+01 +7.401308453318e+01
 3.40000000e+02 -2.149318193205e+01 +7.157023738761e+01 -4.712439574884e-01 +1.708449149530e+02 -4.712439574891e-01 +1.708449149530e+02 -2.142134373244e+01 +7.323674729597e+01
 3.41000000e+02 -2.146815147352e+01 +7.079168214550e+01 -4.737827834598e-01 +1.702487967283e+02 -4.737827834581e-01 +1.702487967283e+02 -2.139558781647e+01 +7.245976708921e+01
 3.42000000e+02 -2.144364769658e+01 +7.001260850368e+01 -4.763385577032e-01 +1.696529977233e+02 -4.763385577026e-01 +1.696529977232e+02 -2.137034982052e+01 +7.168216128932e+01
 3.43000000e+02 -2.141967712635e+01 +6.923303766162e+01 -4.789106566682e-01 +1.690575294292e+02 -4.789106566687e-01 +1.690575294292e+02 -2.134563656667e+01 +7.090394929315e+01
 3.44000000e+02 -2.139624624063e+01 +6.845299282248e+01 -4.814984111122e-01 +1.684624032580e+02 -4.814984111120e-01 +1.684624032580e+02 -2.132145484163e+01 +7.012515254321e+01
 3.45000000e+02 -2.137336145552e+01 +6.767249921037e+01 -4.841011058030e-01 +1.678676305244e+02 -4.841011058028e-01 +1.678676305244e+02 -2.129781138222e+01 +6.934579454938e+01
 3.46000000e+02 -2.135102911083e+01 +6.689158408116e+01 -4.867179793633e-01 +1.672732224290e+02 -4.867179793632e-01 +1.672732224290e+02 -2.127471286040e+01 +6.856590090337e+01
 3.47000000e+02 -2.132925545492e+01 +6.611027672973e+01 -4.893482242758e-01 +1.666791900396e+02 -4.893482242758e-01 +1.666791900396e+02 -2.125216586799e+01 +6.778549928891e+01
 3.48000000e+02 -2.130804662937e+01 +6.532860849055e+01 -4.919909870463e-01 +1.660855442730e+02 -4.919909870469e-01 +1.660855442730e+02 -2.123017690109e+01 +6.700461948636e+01
 3.49000000e+02 -2.128740865317e+01 +6.454661273355e+01 -4.946453685201e-01 +1.654922958766e+02 -4.946453685223e-01 +1.654922958766e+02 -2.120875234394e+01 +6.622329337189e+01
 3.50000000e+02 -2.126734740680e+01 +6.376432485265e+01 -4.973104243983e-01 +1.648994554091e+02 -4.973104243984e-01 +1.648994554091e+02 -2.118789845264e+01 +6.544155490925e+01
