#  GHZ S DB R 50.0
 1.00000000e-02 -3.647676001932e+01 +9.193142626283e-01 -1.312808396451e-01 -2.015238408964e-02 -1.312808396451e-01 -2.015238409040e-02 -3.647676487482e+01 +9.177802587350e-01
 2.00000000e-02 -3.647036357510e+01 +1.824959784298e+00 -1.313309767436e-01 -4.011349683064e-02 -1.313309767435e-01 -4.011349683146e-02 -3.647038228117e+01 +1.821900090624e+00
 1.00000000e+00 -3.113019010343e+01 +5.382855187856e+01 -1.501530985858e-01 -1.883691193240e+00 -1.501530985857e-01 -1.883691193240e+00 -3.113574049100e+01 +5.369772961879e+01
 2.00000000e+00 -2.640598420980e+01 +6.694619140439e+01 -1.746880811624e-01 -3.626752164617e+00 -1.746880811624e-01 -3.626752164617e+00 -2.644759694229e+01 +6.687764336669e+01
 3.00000000e+00 -2.319655826635e+01 +7.123086342346e+01 -1.980940642366e-01 -5.331586494719e+00 -1.980940642366e-01 -5.331586494719e+00 -2.323420571804e+01 +7.136356715335e+01
 4.00000000e+00 -2.082505445740e+01 +7.259873700984e+01 -2.230132795605e-01 -7.023070538964e+00 -2.230132795605e-01 -7.023070538964e+00 -2.084544679187e+01 +7.279246193728e+01
 5.00000000e+00 -1.896452226786e+01 +7.271702335976e+01 -2.508376286273e-01 -8.706136235590e+00 -2.508376286273e-01 -8.706136235590e+00 -1.897376230797e+01 +7.289777186601e+01
 6.00000000e+00 -1.744296746764e+01 +7.220910865655e+01 -2.822517111575e-01 -1.038076241390e+01 -2.822517111575e-01 -1.038076241390e+01 -1.744759951829e+01 +7.236441282045e+01
 7.00000000e+00 -1.616132620859e+01 +7.135212212001e+01 -3.175103289613e-01 -1.204560309508e+01 -3.175103289613e-01 -1.204560309508e+01 -1.616495528746e+01 +7.149045376629e+01
 8.00000000e+00 -1.505807851905e+01 +7.028606868178e+01 -3.566339523223e-01 -1.369929566307e+01 -3.566339523223e-01 -1.369929566307e+01 -1.506217008060e+01 +7.041851006819e+01
 9.00000000e+00 -1.409259794272e+01 +6.908888583073e+01 -3.995318368275e-01 -1.534079603274e+01 -3.995318368275e-01 -1.534079603274e+01 -1.409752657176e+01 +6.922383792915e+01
 1.00000000e+01 -1.323669281441e+01 +6.780721281249e+01 -4.460672735321e-01 -1.696938329331e+01 -4.460672735321e-01 -1.696938329331e+01 -1.324239172238e+01 +6.794994040599e+01
 1.10000000e+01 -1.247000693332e+01 +6.647048405604e+01 -4.960890325035e-01 -1.858458846964e+01 -4.960890325035e-01 -1.858458846964e+01 -1.247628544039e+01 +6.662394501578e+01
 1.20000000e+01 -1.177736322113e+01 +6.509802039257e+01 -5.494457762970e-01 -2.018612465378e+01 -5.494457762970e-01 -2.018612465378e+01 -1.178403491254e+01 +6.526374842689e+01
 1.30000000e+01 -1.114714643313e+01 +6.370288499167e+01 -6.059924282852e-01 -2.177383332393e+01 -6.059924282852e-01 -2.177383332393e+01 -1.115406746165e+01 +6.388162207749e+01
 1.40000000e+01 -1.057027275085e+01 +6.229411501167e+01 -6.655927275500e-01 -2.334764509145e+01 -6.655927275500e-01 -2.334764509145e+01 -1.057734402005e+01 +6.248619855496e+01
 1.50000000e+01 -1.003950738366e+01 +6.087807853905e+01 -7.281198781944e-01 -2.490755107552e+01 -7.281198781944e-01 -2.490755107552e+01 -1.004666546316e+01 +6.108365756602e+01
 1.60000000e+01 -9.548997515787e+00 +5.945933235360e+01 -7.934561980163e-01 -2.645358212533e+01 -7.934561980163e-01 -2.645358212533e+01 -9.556204215328e+00 +5.967848016439e+01
 1.70000000e+01 -9.093943540629e+00 +5.804118093201e+01 -8.614922519035e-01 -2.798579406817e+01 -8.614922519035e-01 -2.798579406817e+01 -9.101177334450e+00 +5.827394993000e+01
 1.80000000e+01 -8.670362011402e+00 +5.662604952361e+01 -9.321257618411e-01 -2.950425767337e+01 -9.321257618411e-01 -2.950425767337e+01 -8.677611833031e+00 +5.687249558159e+01
 1.90000000e+01 -8.274911160129e+00 +5.521573778371e+01 -1.005260476774e+00 -3.100905227076e+01 -1.005260476774e+00 -3.100905227076e+01 -8.282172210048e+00 +5.547592940548e+01
 2.00000000e+01 -7.904760166821e+00 +5.381159469269e+01 -1.080805113516e+00 -3.250026211901e+01 -1.080805113516e+00 -3.250026211901e+01 -7.912031203636e+00 +5.408561507249e+01
 2.10000000e+01 -7.557489688613e+00 +5.241464054617e+01 -1.158672429142e+00 -3.397797475634e+01 -1.158672429142e+00 -3.397797475634e+01 -7.564771338788e+00 +5.270258664913e+01
 2.20000000e+01 -7.231015150636e+00 +5.102565279631e+01 -1.238778450137e+00 -3.544228070295e+01 -1.238778450137e+00 -3.544228070295e+01 -7.238308888304e+00 +5.132763345928e+01
 2.30000000e+01 -6.923526886830e+00 +4.964522691082e+01 -1.321041860514e+00 -3.689327401746e+01 -1.321041860514e+00 -3.689327401746e+01 -6.930834441337e+00 +4.996136086732e+01
 2.40000000e+01 -6.633442935969e+00 +4.827381981401e+01 -1.405383537283e+00 -3.833105333074e+01 -1.405383537283e+00 -3.833105333074e+01 -6.640765965665e+00 +4.860423400181e+01
 2.50000000e+01 -6.359371463751e+00 +4.691178110535e+01 -1.491726214375e+00 -3.975572308465e+01 -1.491726214375e+00 -3.975572308465e+01 -6.366711391342e+00 +4.725660935592e+01
 2.60000000e+01 -6.100080589231e+00 +4.555937566053e+01 -1.579994253398e+00 -4.116739478796e+01 -1.579994253398e+00 -4.116739478796e+01 -6.107438532239e+00 +4.591875775637e+01
 2.70000000e+01 -5.854473963540e+00 +4.421680013615e+01 -1.670113499625e+00 -4.256618816842e+01 -1.670113499625e+00 -4.256618816842e+01 -5.861850718435e+00 +4.459088117932e+01
 2.80000000e+01 -5.621570857480e+00 +4.288419515028e+01 -1.762011203290e+00 -4.395223214964e+01 -1.762011203290e+00 -4.395223214964e+01 -5.628966912128e+00 +4.327312517658e+01
 2.90000000e+01 -5.400489811993e+00 +4.156165438896e+01 -1.855615988773e+00 -4.532566561752e+01 -1.855615988773e+00 -4.532566561752e+01 -5.407905371308e+00 +4.196558816739e+01
 3.00000000e+01 -5.190435124929e+00 +4.024923152295e+01 -1.950857856978e+00 -4.668663796619e+01 -1.950857856978e+00 -4.668663796619e+01 -5.197870140971e+00 +4.066832848984e+01
 3.10000000e+01 -4.990685611211e+00 +3.894694555997e+01 -2.047668208922e+00 -4.803530943004e+01 -2.047668208922e+00 -4.803530943004e+01 -4.998139812945e+00 +3.938136984826e+01
 3.20000000e+01 -4.800585196971e+00 +3.765478507543e+01 -2.145979881024e+00 -4.937185121852e+01 -2.145979881024e+00 -4.937185121852e+01 -4.808058117281e+00 +3.810470560891e+01
 3.30000000e+01 -4.619535002126e+00 +3.637271163451e+01 -2.245727184751e+00 -5.069644547653e+01 -2.245727184751e+00 -5.069644547653e+01 -4.627026001098e+00 +3.683830226515e+01
 3.40000000e+01 -4.446986637982e+00 +3.510066262694e+01 -2.346845945094e+00 -5.200928509538e+01 -2.346845945094e+00 -5.200928509538e+01 -4.454494922288e+00 +3.558210229952e+01
 3.50000000e+01 -4.282436502187e+00 +3.383855367024e+01 -2.449273533866e+00 -5.331057340003e+01 -2.449273533866e+00 -5.331057340003e+01 -4.289961140798e+00 +3.433602660350e+01
 3.60000000e+01 -4.125420896704e+00 +3.258628069108e+01 -2.552948895031e+00 -5.460052373733e+01 -2.552948895031e+00 -5.460052373733e+01 -4.132960833402e+00 +3.309997656837e+01
 3.70000000e+01 -3.975511828523e+00 +3.134372176185e+01 -2.657812560217e+00 -5.587935898797e+01 -2.657812560217e+00 -5.587935898797e+01 -3.983065891698e+00 +3.187383592669e+01
 3.80000000e+01 -3.832313379544e+00 +3.011073874620e+01 -2.763806653326e+00 -5.714731102285e+01 -2.763806653326e+00 -5.714731102285e+01 -3.839880289788e+00 +3.065747240033e+01
 3.90000000e+01 -3.695458553335e+00 +2.888717879155e+01 -2.870874883716e+00 -5.840462012213e+01 -2.870874883716e+00 -5.840462012213e+01 -3.703036929277e+00 +2.945073919417e+01
 4.00000000e+01 -3.564606523338e+00 +2.767287569469e+01 -2.978962527845e+00 -5.965153437266e+01 -2.978962527845e+00 -5.965153437266e+01 -3.572194886075e+00 +2.825347636274e+01
 4.10000000e+01 -3.439440220606e+00 +2.646765115926e+01 -3.088016399570e+00 -6.088830905734e+01 -3.088016399570e+00 -6.088830905734e+01 -3.447036997047e+00 +2.706551206896e+01
 4.20000000e+01 -3.319664210055e+00 +2.527131595818e+01 -3.197984809534e+00 -6.211520604769e+01 -3.197984809534e+00 -6.211520604769e+01 -3.327267735392e+00 +2.588666374841e+01
 4.30000000e+01 -3.205002812963e+00 +2.408367101036e+01 -3.308817514160e+00 -6.333249320894e+01 -3.308817514160e+00 -6.333249320894e+01 -3.212611332439e+00 +2.471673918881e+01
 4.40000000e+01 -3.095198440583e+00 +2.290450837866e+01 -3.420465654918e+00 -6.454044382535e+01 -3.420465654918e+00 -6.454044382535e+01 -3.102810110671e+00 +2.355553753155e+01
 4.50000000e+01 -2.990010109540e+00 +2.173361219439e+01 -3.532881688535e+00 -6.573933605168e+01 -3.532881688535e+00 -6.573933605168e+01 -2.997622998601e+00 +2.240285020062e+01
 4.60000000e+01 -2.889212114412e+00 +2.057075951234e+01 -3.646019308831e+00 -6.692945239560e+01 -3.646019308831e+00 -6.692945239560e+01 -2.896824202876e+00 +2.125846176291e+01
 4.70000000e+01 -2.792592836796e+00 +1.941572109985e+01 -3.759833360877e+00 -6.811107923449e+01 -3.759833360877e+00 -6.811107923449e+01 -2.800202016883e+00 +2.012215072326e+01
 4.80000000e+01 -2.699953673386e+00 +1.826826216298e+01 -3.874279748106e+00 -6.928450636923e+01 -3.874279748106e+00 -6.928450636923e+01 -2.707557748361e+00 +1.899369025724e+01
 4.90000000e+01 -2.611108068203e+00 +1.712814301235e+01 -3.989315332995e+00 -7.045002661666e+01 -3.989315332995e+00 -7.045002661666e+01 -2.618704751175e+00 +1.787284888418e+01
 5.00000000e+01 -2.525880636380e+00 +1.599511967143e+01 -4.104897831863e+00 -7.160793544154e+01 -4.104897831863e+00 -7.160793544154e+01 -2.533467548606e+00 +1.675939108312e+01
 5.10000000e+01 -2.444106368684e+00 +1.486894442956e+01 -4.220985704293e+00 -7.275853062867e+01 -4.220985704293e+00 -7.275853062867e+01 -2.451681037382e+00 +1.565307785401e+01
 5.20000000e+01 -2.365629907536e+00 +1.374936634237e+01 -4.337538037610e+00 -7.390211199478e+01 -4.337538037610e+00 -7.390211199478e+01 -2.373189763187e+00 +1.455366722657e+01
 5.30000000e+01 -2.290304886560e+00 +1.263613168192e+01 -4.454514426806e+00 -7.503898113986e+01 -4.454514426806e+00 -7.503898113986e+01 -2.297847259679e+00 +1.346091471936e+01
 5.40000000e+01 -2.217993326771e+00 +1.152898433893e+01 -4.571874850227e+00 -7.616944123717e+01 -4.571874850227e+00 -7.616944123717e+01 -2.225515444144e+00 +1.237457375123e+01
 5.50000000e+01 -2.148565083444e+00 +1.042766617961e+01 -4.689579541300e+00 -7.729379686075e+01 -4.689579541300e+00 -7.729379686075e+01 -2.156064063813e+00 +1.129439600774e+01
 5.60000000e+01 -2.081897338468e+00 +9.331917359306e+00 -4.807588856508e+00 -7.841235384931e+01 -4.807588856508e+00 -7.841235384931e+01 -2.089370187673e+00 +1.022013176480e+01
 5.70000000e+01 -2.017874133658e+00 +8.241476595343e+00 -4.925863139791e+00 -7.952541920525e+01 -4.925863139791e+00 -7.952541920525e+01 -2.025317739213e+00 +9.151530171851e+00
 5.80000000e+01 -1.956385941059e+00 +7.156081401323e+00 -5.044362583489e+00 -8.063330102708e+01 -5.044362583489e+00 -8.063330102708e+01 -1.963797066171e+00 +8.088339496937e+00
 5.90000000e+01 -1.897329266741e+00 +6.075468284986e+00 -5.163047085909e+00 -8.173630847415e+01 -5.163047085909e+00 -8.173630847415e+01 -1.904704543775e+00 +7.030307335758e+00
 6.00000000e+01 -1.840606285039e+00 +4.999372911809e+00 -5.281876105583e+00 -8.283475176187e+01 -5.281876105583e+00 -8.283475176187e+01 -1.847942208415e+00 +5.977180786976e+00
 6.10000000e+01 -1.786124500494e+00 +3.927530236315e+00 -5.400808512216e+00 -8.392894218599e+01 -5.400808512216e+00 -8.392894218599e+01 -1.793417419025e+00 +4.928706595723e+00
 6.20000000e+01 -1.733796435107e+00 +2.859674603029e+00 -5.519802434345e+00 -8.501919217450e+01 -5.519802434345e+00 -8.501919217450e+01 -1.741042543774e+00 +3.884631267329e+00
 6.30000000e+01 -1.683539338761e+00 +1.795539818904e+00 -5.638815103672e+00 -8.610581536560e+01 -5.638815103672e+00 -8.610581536560e+01 -1.690734669922e+00 +2.844701153106e+00
 6.40000000e+01 -1.635274920899e+00 +7.348591989181e-01 -5.757802696052e+00 -8.718912671021e+01 -5.757802696052e+00 -8.718912671021e+01 -1.642415334926e+00 +1.808662509958e+00
 6.50000000e+01 -1.588929101760e+00 -3.226344135336e-01 -5.876720169097e+00 -8.826944259766e+01 -5.876720169097e+00 -8.826944259766e+01 -1.596010277106e+00 +7.762615354746e-01
 6.60000000e+01 -1.544431781660e+00 -1.377208649957e+00 -5.995521096361e+00 -8.934708100320e+01 -5.995521096361e+00 -8.934708100320e+01 -1.551449204330e+00 -2.527556199574e-01
 6.70000000e+01 -1.501716626926e+00 -2.429131642398e+00 -6.114157498078e+00 -9.042236165578e+01 -6.114157498078e+00 -9.042236165578e+01 -1.508665579367e+00 -1.278642862574e+00
 6.80000000e+01 -1.460720871292e+00 -3.478672070114e+00 -6.232579668449e+00 -9.149560622482e+01 -6.232579668449e+00 -9.149560622482e+01 -1.467596420664e+00 -2.301654184860e+00
 6.90000000e+01 -1.421385131629e+00 -4.526099226100e+00 -6.350735999477e+00 -9.256713852471e+01 -6.350735999477e+00 -9.256713852471e+01 -1.428182117451e+00 -3.322043714149e+00
 7.00000000e+01 -1.383653237026e+00 -5.571683102401e+00 -6.468572801399e+00 -9.363728473546e+01 -6.468572801399e+00 -9.363728473546e+01 -1.390366258185e+00 -4.340065779076e+00
 7.10000000e+01 -1.347472070342e+00 -6.615694493222e+00 -6.586034119792e+00 -9.470637363838e+01 -6.586034119792e+00 -9.470637363838e+01 -1.354095471427e+00 -5.355974992842e+00
 7.20000000e+01 -1.312791421411e+00 -7.658405114972e+00 -6.703061549477e+00 -9.577473686524e+01 -6.703061549477e+00 -9.577473686524e+01 -1.319319278354e+00 -6.370026352379e+00
 7.30000000e+01 -1.279563851189e+00 -8.700087742449e+00 -6.819594045403e+00 -9.684270915951e+01 -6.819594045403e+00 -9.684270915951e+01 -1.285989956184e+00 -7.382475352548e+00
 7.40000000e+01 -1.247744566196e+00 -9.741016360467e+00 -6.935567730767e+00 -9.791062864834e+01 -6.935567730767e+00 -9.791062864834e+01 -1.254062411860e+00 -8.393578114623e+00
 7.50000000e+01 -1.217291302665e+00 -1.078146633032e+01 -7.050915702681e+00 -9.897883712355e+01 -7.050915702681e+00 -9.897883712355e+01 -1.223494065400e+00 -9.403591528387e+00
 7.60000000e+01 -1.188164219892e+00 -1.182171457052e+01 -7.165567835821e+00 -1.000476803302e+02 -7.165567835821e+00 -1.000476803302e+02 -1.194244742416e+00 -1.041277340722e+01
 7.70000000e+01 -1.160325802313e+00 -1.286203975141e+01 -7.279450584554e+00 -1.011175082609e+02 -7.279450584554e+00 -1.011175082609e+02 -1.166276575301e+00 -1.142138265567e+01
 7.80000000e+01 -1.133740769905e+00 -1.390272250316e+01 -7.392486784191e+00 -1.021886754543e+02 -7.392486784191e+00 -1.021886754543e+02 -1.139553912700e+00 -1.242967944901e+01
 7.90000000e+01 -1.108375996558e+00 -1.494404563691e+01 -7.504595452106e+00 -1.032615412950e+02 -7.504595452106e+00 -1.032615412950e+02 -1.114043236889e+00 -1.343792542437e+01
 8.00000000e+01 -1.084200436090e+00 -1.598629437874e+01 -7.615691589629e+00 -1.043364703144e+02 -7.615691589629e+00 -1.043364703144e+02 -1.089713088747e+00 -1.444638388314e+01
 8.10000000e+01 -1.061185055654e+00 -1.702975661624e+01 -7.725685985767e+00 -1.054138324881e+02 -7.725685985767e+00 -1.054138324881e+02 -1.066534000036e+00 -1.545532000425e+01
 8.20000000e+01 -1.039302776293e+00 -1.807472315751e+01 -7.834485023974e+00 -1.064940035297e+02 -7.834485023974e+00 -1.064940035297e+02 -1.044478432777e+00 -1.646500106806e+01
 8.30000000e+01 -1.018528420476e+00 -1.912148800249e+01 -7.941990493384e+00 -1.075773651764e+02 -7.941990493384e+00 -1.075773651764e+02 -1.023520725510e+00 -1.747569669072e+01
 8.40000000e+01 -9.988386664440e-01 -2.017034862644e+01 -8.048099406129e+00 -1.086643054653e+02 -8.048099406129e+00 -1.086643054653e+02 -1.003637046301e+00 -1.848767906864e+01
 8.50000000e+01 -9.802120092816e-01 -2.122160627554e+01 -8.152703822557e+00 -1.097552189958e+02 -8.152703822557e+00 -1.097552189958e+02 -9.848053523577e-01 -1.950122323300e+01
 8.60000000e+01 -9.626287286201e-01 -2.227556627454e+01 -8.255690686428e+00 -1.108505071771e+02 -8.255690686428e+00 -1.108505071771e+02 -9.670053561955e-01 -2.051660731397e+01
 8.70000000e+01 -9.460708629512e-01 -2.333253834643e+01 -8.356941672391e+00 -1.119505784551e+02 -8.356941672391e+00 -1.119505784551e+02 -9.502184983002e-01 -2.153411281459e+01
 8.80000000e+01 -9.305221905468e-01 -2.439283694398e+01 -8.456333048300e+00 -1.130558485176e+02 -8.456333048300e+00 -1.130558485176e+02 -9.344279262765e-01 -2.255402489402e+01
 8.90000000e+01 -9.159682170223e-01 -2.545678159321e+01 -8.553735555209e+00 -1.141667404722e+02 -8.553735555209e+00 -1.141667404722e+02 -9.196184805174e-01 -2.357663266000e+01
 9.00000000e+01 -9.023961696219e-01 -2.652469724863e+01 -8.649014308141e+00 -1.152836849949e+02 -8.649014308141e+00 -1.152836849949e+02 -9.057766864544e-01 -2.460222947013e+01
 9.10000000e+01 -8.897949983342e-01 -2.759691466010e+01 -8.742028721012e+00 -1.164071204445e+02 -8.742028721012e+00 -1.164071204445e+02 -8.928907534909e-01 -2.563111324193e+01
 9.20000000e+01 -8.781553839930e-01 -2.867377075126e+01 -8.832632459357e+00 -1.175374929407e+02 -8.832632459357e+00 -1.175374929407e+02 -8.809505807567e-01 -2.666358677101e+01
 9.30000000e+01 -8.674697535500e-01 -2.975560900913e+01 -8.920673424779e+00 -1.186752563999e+02 -8.920673424779e+00 -1.186752563999e+02 -8.699477698604e-01 -2.769995805710e+01
 9.40000000e+01 -8.577323027524e-01 -3.084277988471e+01 -9.005993775285e+00 -1.198208725283e+02 -9.005993775285e+00 -1.198208725283e+02 -8.598756448528e-01 -2.874054063746e+01
 9.50000000e+01 -8.489390264950e-01 -3.193564120411e+01 -9.088429985906e+00 -1.209748107666e+02 -9.088429985906e+00 -1.209748107666e+02 -8.507292796594e-01 -2.978565392674e+01
 9.60000000e+01 -8.410877571629e-01 -3.303455858958e+01 -9.167812954203e+00 -1.221375481854e+02 -9.167812954203e+00 -1.221375481854e+02 -8.425055332756e-01 -3.083562356281e+01
 9.70000000e+01 -8.341782113226e-01 -3.413990588993e+01 -9.243968155401e+00 -1.233095693277e+02 -9.243968155401e+00 -1.233095693277e+02 -8.352030930658e-01 -3.189078175743e+01
 9.80000000e+01 -8.282120451676e-01 -3.525206561928e+01 -9.316715852032e+00 -1.244913659984e+02 -9.316715852032e+00 -1.244913659984e+02 -8.288225265478e-01 -3.295146765054e+01
 9.90000000e+01 -8.231929191700e-01 -3.637142940318e+01 -9.385871362965e+00 -1.256834369986e+02 -9.385871362965e+00 -1.256834369986e+02 -8.233663420918e-01 -3.401802766691e+01
 1.00000000e+02 -8.191265724399e-01 -3.749839843070e+01 -9.451245396719e+00 -1.268862878055e+02 -9.451245396719e+00 -1.268862878055e+02 -8.188390590082e-01 -3.509081587343e+01
