! Inductor model fitted by inductor_fit.py from inductor_74p.s2p
#   Hz   S  RI   R   50
1.000000e+07 3.457555904e-03 1.615980464e-05 9.965424397e-01 -1.101717433e-04 9.965424397e-01 -1.101717433e-04 3.457555904e-03 1.615980464e-05
2.000000e+07 3.457712057e-03 3.231876001e-05 9.965422702e-01 -2.203426366e-04 9.965422702e-01 -2.203426366e-04 3.457712057e-03 3.231876001e-05
1.000000e+09 3.942261356e-03 1.484149212e-03 9.960133729e-01 -1.088521534e-02 9.960133729e-01 -1.088521534e-02 3.942261356e-03 1.484149212e-03
2.000000e+09 5.064921191e-03 2.357156991e-03 9.947575616e-01 -2.115849081e-02 9.947575616e-01 -2.115849081e-02 5.064921191e-03 2.357156991e-03
3.000000e+09 6.271100837e-03 2.549053135e-03 9.933293600e-01 -3.074896115e-02 9.933293600e-01 -3.074896115e-02 6.271100837e-03 2.549053135e-03
4.000000e+09 7.271339978e-03 2.303981644e-03 9.920182006e-01 -3.989981853e-02 9.920182006e-01 -3.989981853e-02 7.271339978e-03 2.303981644e-03
5.000000e+09 8.019486430e-03 1.850153227e-03 9.908702619e-01 -4.883832441e-02 9.908702619e-01 -4.883832441e-02 8.019486430e-03 1.850153227e-03
6.000000e+09 8.559570469e-03 1.319053804e-03 9.898415669e-01 -5.769503320e-02 9.898415669e-01 -5.769503320e-02 8.559570469e-03 1.319053804e-03
7.000000e+09 8.946888426e-03 7.729793578e-04 9.888768843e-01 -6.653132255e-02 9.888768843e-01 -6.653132255e-02 8.946888426e-03 7.729793578e-04
8.000000e+09 9.225757817e-03 2.380310840e-04 9.879319704e-01 -7.537238268e-02 9.879319704e-01 -7.537238268e-02 9.225757817e-03 2.380310840e-04
9.000000e+09 9.427687033e-03 -2.765252510e-04 9.869753981e-01 -8.422657232e-02 9.869753981e-01 -8.422657232e-02 9.427687033e-03 -2.765252510e-04
1.000000e+10 9.574281256e-03 -7.687697061e-04 9.859856516e-01 -9.309490673e-02 9.859856516e-01 -9.309490673e-02 9.574281256e-03 -7.687697061e-04
1.100000e+10 9.680282738e-03 -1.239769602e-03 9.849480871e-01 -1.019754155e-01 9.849480871e-01 -1.019754155e-01 9.680282738e-03 -1.239769602e-03
1.200000e+10 9.755833735e-03 -1.691638946e-03 9.838526699e-01 -1.108650831e-01 9.838526699e-01 -1.108650831e-01 9.755833735e-03 -1.691638946e-03
1.300000e+10 9.808007812e-03 -2.126700894e-03 9.826924435e-01 -1.197606859e-01 9.826924435e-01 -1.197606859e-01 9.808007812e-03 -2.126700894e-03
1.400000e+10 9.841815838e-03 -2.547147403e-03 9.814625236e-01 -1.286591333e-01 9.814625236e-01 -1.286591333e-01 9.841815838e-03 -2.547147403e-03
1.500000e+10 9.860864101e-03 -2.954920472e-03 9.801594405e-01 -1.375575859e-01 9.801594405e-01 -1.375575859e-01 9.860864101e-03 -2.954920472e-03
1.600000e+10 9.867787849e-03 -3.351689616e-03 9.787807051e-01 -1.464534784e-01 9.787807051e-01 -1.464534784e-01 9.867787849e-03 -3.351689616e-03
1.700000e+10 9.864540386e-03 -3.738868574e-03 9.773245202e-01 -1.553445034e-01 9.773245202e-01 -1.553445034e-01 9.864540386e-03 -3.738868574e-03
1.800000e+10 9.852588635e-03 -4.117645584e-03 9.757895849e-01 -1.642285805e-01 9.757895849e-01 -1.642285805e-01 9.852588635e-03 -4.117645584e-03
1.900000e+10 9.833047448e-03 -4.489015951e-03 9.741749603e-01 -1.731038247e-01 9.741749603e-01 -1.731038247e-01 9.833047448e-03 -4.489015951e-03
2.000000e+10 9.806773254e-03 -4.853812337e-03 9.724799757e-01 -1.819685153e-01 9.724799757e-01 -1.819685153e-01 9.806773254e-03 -4.853812337e-03
2.100000e+10 9.774430324e-03 -5.212731180e-03 9.707041626e-01 -1.908210707e-01 9.707041626e-01 -1.908210707e-01 9.774430324e-03 -5.212731180e-03
2.200000e+10 9.736538333e-03 -5.566355047e-03 9.688472067e-01 -1.996600253e-01 9.688472067e-01 -1.996600253e-01 9.736538333e-03 -5.566355047e-03
2.300000e+10 9.693506961e-03 -5.915171222e-03 9.669089139e-01 -2.084840114e-01 9.669089139e-01 -2.084840114e-01 9.693506961e-03 -5.915171222e-03
2.400000e+10 9.645661391e-03 -6.259587051e-03 9.648891842e-01 -2.172917439e-01 9.648891842e-01 -2.172917439e-01 9.645661391e-03 -6.259587051e-03
2.500000e+10 9.593261333e-03 -6.599942564e-03 9.627879929e-01 -2.260820082e-01 9.627879929e-01 -2.260820082e-01 9.593261333e-03 -6.599942564e-03
2.600000e+10 9.536515380e-03 -6.936520849e-03 9.606053763e-01 -2.348536493e-01 9.606053763e-01 -2.348536493e-01 9.536515380e-03 -6.936520849e-03
2.700000e+10 9.475591965e-03 -7.269556601e-03 9.583414204e-01 -2.436055637e-01 9.583414204e-01 -2.436055637e-01 9.475591965e-03 -7.269556601e-03
2.800000e+10 9.410627815e-03 -7.599243175e-03 9.559962530e-01 -2.523366929e-01 9.559962530e-01 -2.523366929e-01 9.410627815e-03 -7.599243175e-03
2.900000e+10 9.341734536e-03 -7.925738437e-03 9.535700363e-01 -2.610460169e-01 9.535700363e-01 -2.610460169e-01 9.341734536e-03 -7.925738437e-03
3.000000e+10 9.269003795e-03 -8.249169627e-03 9.510629623e-01 -2.697325500e-01 9.510629623e-01 -2.697325500e-01 9.269003795e-03 -8.249169627e-03
3.100000e+10 9.192511437e-03 -8.569637435e-03 9.484752484e-01 -2.783953368e-01 9.484752484e-01 -2.783953368e-01 9.192511437e-03 -8.569637435e-03
3.200000e+10 9.112320786e-03 -8.887219418e-03 9.458071340e-01 -2.870334487e-01 9.458071340e-01 -2.870334487e-01 9.112320786e-03 -8.887219418e-03
3.300000e+10 9.028485312e-03 -9.201972892e-03 9.430588779e-01 -2.956459815e-01 9.430588779e-01 -2.956459815e-01 9.028485312e-03 -9.201972892e-03
3.400000e+10 8.941050807e-03 -9.513937387e-03 9.402307561e-01 -3.042320527e-01 9.402307561e-01 -3.042320527e-01 8.941050807e-03 -9.513937387e-03
3.500000e+10 8.850057171e-03 -9.823136748e-03 9.373230597e-01 -3.127907998e-01 9.373230597e-01 -3.127907998e-01 8.850057171e-03 -9.823136748e-03
3.600000e+10 8.755539896e-03 -1.012958094e-02 9.343360936e-01 -3.213213785e-01 9.343360936e-01 -3.213213785e-01 8.755539896e-03 -1.012958094e-02
3.700000e+10 8.657531302e-03 -1.043326759e-02 9.312701754e-01 -3.298229614e-01 9.312701754e-01 -3.298229614e-01 8.657531302e-03 -1.043326759e-02
3.800000e+10 8.556061569e-03 -1.073418339e-02 9.281256337e-01 -3.382947367e-01 9.281256337e-01 -3.382947367e-01 8.556061569e-03 -1.073418339e-02
3.900000e+10 8.451159621e-03 -1.103230524e-02 9.249028076e-01 -3.467359069e-01 9.249028076e-01 -3.467359069e-01 8.451159621e-03 -1.103230524e-02
4.000000e+10 8.342853869e-03 -1.132760131e-02 9.216020460e-01 -3.551456886e-01 9.216020460e-01 -3.551456886e-01 8.342853869e-03 -1.132760131e-02
4.100000e+10 8.231172847e-03 -1.162003200e-02 9.182237063e-01 -3.635233108e-01 9.182237063e-01 -3.635233108e-01 8.231172847e-03 -1.162003200e-02
4.200000e+10 8.116145757e-03 -1.190955073e-02 9.147681545e-01 -3.718680149e-01 9.147681545e-01 -3.718680149e-01 8.116145757e-03 -1.190955073e-02
4.300000e+10 7.997802945e-03 -1.219610472e-02 9.112357641e-01 -3.801790536e-01 9.112357641e-01 -3.801790536e-01 7.997802945e-03 -1.219610472e-02
4.400000e+10 7.876176301e-03 -1.247963563e-02 9.076269158e-01 -3.884556909e-01 9.076269158e-01 -3.884556909e-01 7.876176301e-03 -1.247963563e-02
4.500000e+10 7.751299615e-03 -1.276008022e-02 9.039419970e-01 -3.966972010e-01 9.039419970e-01 -3.966972010e-01 7.751299615e-03 -1.276008022e-02
4.600000e+10 7.623208879e-03 -1.303737090e-02 9.001814018e-01 -4.049028682e-01 9.001814018e-01 -4.049028682e-01 7.623208879e-03 -1.303737090e-02
4.700000e+10 7.491942550e-03 -1.331143621e-02 8.963455300e-01 -4.130719866e-01 8.963455300e-01 -4.130719866e-01 7.491942550e-03 -1.331143621e-02
4.800000e+10 7.357541778e-03 -1.358220136e-02 8.924347871e-01 -4.212038594e-01 8.924347871e-01 -4.212038594e-01 7.357541778e-03 -1.358220136e-02
4.900000e+10 7.220050599e-03 -1.384958864e-02 8.884495840e-01 -4.292977989e-01 8.884495840e-01 -4.292977989e-01 7.220050599e-03 -1.384958864e-02
5.000000e+10 7.079516105e-03 -1.411351786e-02 8.843903370e-01 -4.373531260e-01 8.843903370e-01 -4.373531260e-01 7.079516105e-03 -1.411351786e-02
5.100000e+10 6.935988583e-03 -1.437390672e-02 8.802574669e-01 -4.453691702e-01 8.802574669e-01 -4.453691702e-01 6.935988583e-03 -1.437390672e-02
5.200000e+10 6.789521636e-03 -1.463067120e-02 8.760513994e-01 -4.533452688e-01 8.760513994e-01 -4.533452688e-01 6.789521636e-03 -1.463067120e-02
5.300000e+10 6.640172277e-03 -1.488372589e-02 8.717725644e-01 -4.612807674e-01 8.717725644e-01 -4.612807674e-01 6.640172277e-03 -1.488372589e-02
5.400000e+10 6.488001013e-03 -1.513298436e-02 8.674213963e-01 -4.691750189e-01 8.674213963e-01 -4.691750189e-01 6.488001013e-03 -1.513298436e-02
5.500000e+10 6.333071901e-03 -1.537835943e-02 8.629983334e-01 -4.770273839e-01 8.629983334e-01 -4.770273839e-01 6.333071901e-03 -1.537835943e-02
5.600000e+10 6.175452599e-03 -1.561976350e-02 8.585038180e-01 -4.848372302e-01 8.585038180e-01 -4.848372302e-01 6.175452599e-03 -1.561976350e-02
5.700000e+10 6.015214389e-03 -1.585710884e-02 8.539382959e-01 -4.926039329e-01 8.539382959e-01 -4.926039329e-01 6.015214389e-03 -1.585710884e-02
5.800000e+10 5.852432200e-03 -1.609030783e-02 8.493022168e-01 -5.003268736e-01 8.493022168e-01 -5.003268736e-01 5.852432200e-03 -1.609030783e-02
5.900000e+10 5.687184607e-03 -1.631927329e-02 8.445960338e-01 -5.080054410e-01 8.445960338e-01 -5.080054410e-01 5.687184607e-03 -1.631927329e-02
6.000000e+10 5.519553826e-03 -1.654391865e-02 8.398202033e-01 -5.156390303e-01 8.398202033e-01 -5.156390303e-01 5.519553826e-03 -1.654391865e-02
6.100000e+10 5.349625687e-03 -1.676415827e-02 8.349751848e-01 -5.232270431e-01 8.349751848e-01 -5.232270431e-01 5.349625687e-03 -1.676415827e-02
6.200000e+10 5.177489610e-03 -1.697990760e-02 8.300614412e-01 -5.307688873e-01 8.300614412e-01 -5.307688873e-01 5.177489610e-03 -1.697990760e-02
6.300000e+10 5.003238563e-03 -1.719108346e-02 8.250794384e-01 -5.382639770e-01 8.250794384e-01 -5.382639770e-01 5.003238563e-03 -1.719108346e-02
6.400000e+10 4.826969006e-03 -1.739760425e-02 8.200296450e-01 -5.457117321e-01 8.200296450e-01 -5.457117321e-01 4.826969006e-03 -1.739760425e-02
6.500000e+10 4.648780838e-03 -1.759939010e-02 8.149125327e-01 -5.531115788e-01 8.149125327e-01 -5.531115788e-01 4.648780838e-03 -1.759939010e-02
6.600000e+10 4.468777328e-03 -1.779636314e-02 8.097285761e-01 -5.604629487e-01 8.097285761e-01 -5.604629487e-01 4.468777328e-03 -1.779636314e-02
6.700000e+10 4.287065035e-03 -1.798844762e-02 8.044782523e-01 -5.677652793e-01 8.044782523e-01 -5.677652793e-01 4.287065035e-03 -1.798844762e-02
6.800000e+10 4.103753733e-03 -1.817557013e-02 7.991620411e-01 -5.750180133e-01 7.991620411e-01 -5.750180133e-01 4.103753733e-03 -1.817557013e-02
6.900000e+10 3.918956314e-03 -1.835765979e-02 7.937804252e-01 -5.822205993e-01 7.937804252e-01 -5.822205993e-01 3.918956314e-03 -1.835765979e-02
7.000000e+10 3.732788697e-03 -1.853464836e-02 7.883338894e-01 -5.893724907e-01 7.883338894e-01 -5.893724907e-01 3.732788697e-03 -1.853464836e-02
7.100000e+10 3.545369724e-03 -1.870647043e-02 7.828229215e-01 -5.964731466e-01 7.828229215e-01 -5.964731466e-01 3.545369724e-03 -1.870647043e-02
7.200000e+10 3.356821053e-03 -1.887306356e-02 7.772480116e-01 -6.035220309e-01 7.772480116e-01 -6.035220309e-01 3.356821053e-03 -1.887306356e-02
7.300000e+10 3.167267043e-03 -1.903436842e-02 7.716096521e-01 -6.105186126e-01 7.716096521e-01 -6.105186126e-01 3.167267043e-03 -1.903436842e-02
7.400000e+10 2.976834640e-03 -1.919032893e-02 7.659083381e-01 -6.174623658e-01 7.659083381e-01 -6.174623658e-01 2.976834640e-03 -1.919032893e-02
7.500000e+10 2.785653252e-03 -1.934089239e-02 7.601445668e-01 -6.243527691e-01 7.601445668e-01 -6.243527691e-01 2.785653252e-03 -1.934089239e-02
7.600000e+10 2.593854624e-03 -1.948600958e-02 7.543188381e-01 -6.311893063e-01 7.543188381e-01 -6.311893063e-01 2.593854624e-03 -1.948600958e-02
7.700000e+10 2.401572709e-03 -1.962563488e-02 7.484316541e-01 -6.379714657e-01 7.484316541e-01 -6.379714657e-01 2.401572709e-03 -1.962563488e-02
7.800000e+10 2.208943533e-03 -1.975972638e-02 7.424835191e-01 -6.446987401e-01 7.424835191e-01 -6.446987401e-01 2.208943533e-03 -1.975972638e-02
7.900000e+10 2.016105061e-03 -1.988824597e-02 7.364749400e-01 -6.513706270e-01 7.364749400e-01 -6.513706270e-01 2.016105061e-03 -1.988824597e-02
8.000000e+10 1.823197054e-03 -2.001115944e-02 7.304064258e-01 -6.579866284e-01 7.304064258e-01 -6.579866284e-01 1.823197054e-03 -2.001115944e-02
8.100000e+10 1.630360931e-03 -2.012843655e-02 7.242784880e-01 -6.645462506e-01 7.242784880e-01 -6.645462506e-01 1.630360931e-03 -2.012843655e-02
8.200000e+10 1.437739625e-03 -2.024005110e-02 7.180916401e-01 -6.710490044e-01 7.180916401e-01 -6.710490044e-01 1.437739625e-03 -2.024005110e-02
8.300000e+10 1.245477435e-03 -2.034598105e-02 7.118463982e-01 -6.774944047e-01 7.118463982e-01 -6.774944047e-01 1.245477435e-03 -2.034598105e-02
8.400000e+10 1.053719883e-03 -2.044620851e-02 7.055432807e-01 -6.838819709e-01 7.055432807e-01 -6.838819709e-01 1.053719883e-03 -2.044620851e-02
8.500000e+10 8.626135583e-04 -2.054071984e-02 6.991828080e-01 -6.902112264e-01 6.991828080e-01 -6.902112264e-01 8.626135583e-04 -2.054071984e-02
8.600000e+10 6.723059765e-04 -2.062950570e-02 6.927655031e-01 -6.964816988e-01 6.927655031e-01 -6.964816988e-01 6.723059765e-04 -2.062950570e-02
8.700000e+10 4.829454225e-04 -2.071256110e-02 6.862918913e-01 -7.026929199e-01 6.862918913e-01 -7.026929199e-01 4.829454225e-04 -2.071256110e-02
8.800000e+10 2.946808022e-04 -2.078988538e-02 6.797625001e-01 -7.088444253e-01 6.797625001e-01 -7.088444253e-01 2.946808022e-04 -2.078988538e-02
8.900000e+10 1.076614899e-04 -2.086148233e-02 6.731778592e-01 -7.149357548e-01 6.731778592e-01 -7.149357548e-01 1.076614899e-04 -2.086148233e-02
9.000000e+10 -7.796282278e-05 -2.092736016e-02 6.665385010e-01 -7.209664523e-01 6.665385010e-01 -7.209664523e-01 -7.796282278e-05 -2.092736016e-02
9.100000e+10 -2.620422792e-04 -2.098753151e-02 6.598449600e-01 -7.269360654e-01 6.598449600e-01 -7.269360654e-01 -2.620422792e-04 -2.098753151e-02
9.200000e+10 -4.444270089e-04 -2.104201350e-02 6.530977731e-01 -7.328441456e-01 6.530977731e-01 -7.328441456e-01 -4.444270089e-04 -2.104201350e-02
9.300000e+10 -6.249672789e-04 -2.109082773e-02 6.462974795e-01 -7.386902486e-01 6.462974795e-01 -7.386902486e-01 -6.249672789e-04 -2.109082773e-02
9.400000e+10 -8.035136443e-04 -2.113400026e-02 6.394446210e-01 -7.444739336e-01 6.394446210e-01 -7.444739336e-01 -8.035136443e-04 -2.113400026e-02
9.500000e+10 -9.799170980e-04 -2.117156164e-02 6.325397415e-01 -7.501947638e-01 6.325397415e-01 -7.501947638e-01 -9.799170980e-04 -2.117156164e-02
9.600000e+10 -1.154029219e-03 -2.120354686e-02 6.255833876e-01 -7.558523063e-01 6.255833876e-01 -7.558523063e-01 -1.154029219e-03 -2.120354686e-02
9.700000e+10 -1.325702323e-03 -2.122999539e-02 6.185761082e-01 -7.614461318e-01 6.185761082e-01 -7.614461318e-01 -1.325702323e-03 -2.122999539e-02
9.800000e+10 -1.494789603e-03 -2.125095110e-02 6.115184545e-01 -7.669758148e-01 6.115184545e-01 -7.669758148e-01 -1.494789603e-03 -2.125095110e-02
9.900000e+10 -1.661145283e-03 -2.126646230e-02 6.044109804e-01 -7.724409338e-01 6.044109804e-01 -7.724409338e-01 -1.661145283e-03 -2.126646230e-02
1.000000e+11 -1.824624753e-03 -2.127658167e-02 5.972542421e-01 -7.778410706e-01 5.972542421e-01 -7.778410706e-01 -1.824624753e-03 -2.127658167e-02
1.010000e+11 -1.985084719e-03 -2.128136622e-02 5.900487985e-01 -7.831758113e-01 5.900487985e-01 -7.831758113e-01 -1.985084719e-03 -2.128136622e-02
1.020000e+11 -2.142383336e-03 -2.128087730e-02 5.827952108e-01 -7.884447452e-01 5.827952108e-01 -7.884447452e-01 -2.142383336e-03 -2.128087730e-02
1.030000e+11 -2.296380354e-03 -2.127518051e-02 5.754940427e-01 -7.936474657e-01 5.754940427e-01 -7.936474657e-01 -2.296380354e-03 -2.127518051e-02
1.040000e+11 -2.446937248e-03 -2.126434567e-02 5.681458607e-01 -7.987835697e-01 5.681458607e-01 -7.987835697e-01 -2.446937248e-03 -2.126434567e-02
1.050000e+11 -2.593917356e-03 -2.124844680e-02 5.607512336e-01 -8.038526579e-01 5.607512336e-01 -8.038526579e-01 -2.593917356e-03 -2.124844680e-02
1.060000e+11 -2.737186012e-03 -2.122756199e-02 5.533107329e-01 -8.088543347e-01 5.533107329e-01 -8.088543347e-01 -2.737186012e-03 -2.122756199e-02
1.070000e+11 -2.876610674e-03 -2.120177343e-02 5.458249327e-01 -8.137882082e-01 5.458249327e-01 -8.137882082e-01 -2.876610674e-03 -2.120177343e-02
1.080000e+11 -3.012061053e-03 -2.117116729e-02 5.382944096e-01 -8.186538903e-01 5.382944096e-01 -8.186538903e-01 -3.012061053e-03 -2.117116729e-02
1.090000e+11 -3.143409235e-03 -2.113583366e-02 5.307197429e-01 -8.234509966e-01 5.307197429e-01 -8.234509966e-01 -3.143409235e-03 -2.113583366e-02
1.100000e+11 -3.270529811e-03 -2.109586650e-02 5.231015145e-01 -8.281791462e-01 5.231015145e-01 -8.281791462e-01 -3.270529811e-03 -2.109586650e-02
1.110000e+11 -3.393299991e-03 -2.105136357e-02 5.154403092e-01 -8.328379623e-01 5.154403092e-01 -8.328379623e-01 -3.393299991e-03 -2.105136357e-02
1.120000e+11 -3.511599723e-03 -2.100242630e-02 5.077367140e-01 -8.374270717e-01 5.077367140e-01 -8.374270717e-01 -3.511599723e-03 -2.100242630e-02
1.130000e+11 -3.625311809e-03 -2.094915978e-02 4.999913190e-01 -8.419461049e-01 4.999913190e-01 -8.419461049e-01 -3.625311809e-03 -2.094915978e-02
1.140000e+11 -3.734322017e-03 -2.089167263e-02 4.922047167e-01 -8.463946961e-01 4.922047167e-01 -8.463946961e-01 -3.734322017e-03 -2.089167263e-02
1.150000e+11 -3.838519189e-03 -2.083007695e-02 4.843775027e-01 -8.507724836e-01 4.843775027e-01 -8.507724836e-01 -3.838519189e-03 -2.083007695e-02
1.160000e+11 -3.937795350e-03 -2.076448818e-02 4.765102748e-01 -8.550791091e-01 4.765102748e-01 -8.550791091e-01 -3.937795350e-03 -2.076448818e-02
1.170000e+11 -4.032045808e-03 -2.069502504e-02 4.686036340e-01 -8.593142186e-01 4.686036340e-01 -8.593142186e-01 -4.032045808e-03 -2.069502504e-02
1.180000e+11 -4.121169257e-03 -2.062180946e-02 4.606581839e-01 -8.634774614e-01 4.606581839e-01 -8.634774614e-01 -4.121169257e-03 -2.062180946e-02
1.190000e+11 -4.205067875e-03 -2.054496642e-02 4.526745307e-01 -8.675684911e-01 4.526745307e-01 -8.675684911e-01 -4.205067875e-03 -2.054496642e-02
1.200000e+11 -4.283647416e-03 -2.046462390e-02 4.446532836e-01 -8.715869649e-01 4.446532836e-01 -8.715869649e-01 -4.283647416e-03 -2.046462390e-02
1.210000e+11 -4.356817304e-03 -2.038091275e-02 4.365950544e-01 -8.755325440e-01 4.365950544e-01 -8.755325440e-01 -4.356817304e-03 -2.038091275e-02
1.220000e+11 -4.424490718e-03 -2.029396659e-02 4.285004580e-01 -8.794048936e-01 4.285004580e-01 -8.794048936e-01 -4.424490718e-03 -2.029396659e-02
1.230000e+11 -4.486584681e-03 -2.020392172e-02 4.203701117e-01 -8.832036828e-01 4.203701117e-01 -8.832036828e-01 -4.486584681e-03 -2.020392172e-02
1.240000e+11 -4.543020138e-03 -2.011091699e-02 4.122046360e-01 -8.869285847e-01 4.122046360e-01 -8.869285847e-01 -4.543020138e-03 -2.011091699e-02
1.250000e+11 -4.593722040e-03 -2.001509370e-02 4.040046538e-01 -8.905792762e-01 4.040046538e-01 -8.905792762e-01 -4.593722040e-03 -2.001509370e-02
1.260000e+11 -4.638619412e-03 -1.991659546e-02 3.957707913e-01 -8.941554385e-01 3.957707913e-01 -8.941554385e-01 -4.638619412e-03 -1.991659546e-02
1.270000e+11 -4.677645430e-03 -1.981556811e-02 3.875036772e-01 -8.976567567e-01 3.875036772e-01 -8.976567567e-01 -4.677645430e-03 -1.981556811e-02
1.280000e+11 -4.710737491e-03 -1.971215960e-02 3.792039431e-01 -9.010829201e-01 3.792039431e-01 -9.010829201e-01 -4.710737491e-03 -1.971215960e-02
1.290000e+11 -4.737837274e-03 -1.960651982e-02 3.708722235e-01 -9.044336221e-01 3.708722235e-01 -9.044336221e-01 -4.737837274e-03 -1.960651982e-02
1.300000e+11 -4.758890804e-03 -1.949880055e-02 3.625091559e-01 -9.077085601e-01 3.625091559e-01 -9.077085601e-01 -4.758890804e-03 -1.949880055e-02
1.310000e+11 -4.773848515e-03 -1.938915529e-02 3.541153803e-01 -9.109074360e-01 3.541153803e-01 -9.109074360e-01 -4.773848515e-03 -1.938915529e-02
1.320000e+11 -4.782665296e-03 -1.927773915e-02 3.456915398e-01 -9.140299555e-01 3.456915398e-01 -9.140299555e-01 -4.782665296e-03 -1.927773915e-02
1.330000e+11 -4.785300554e-03 -1.916470873e-02 3.372382803e-01 -9.170758289e-01 3.372382803e-01 -9.170758289e-01 -4.785300554e-03 -1.916470873e-02
1.340000e+11 -4.781718253e-03 -1.905022196e-02 3.287562507e-01 -9.200447708e-01 3.287562507e-01 -9.200447708e-01 -4.781718253e-03 -1.905022196e-02
1.350000e+11 -4.771886965e-03 -1.893443804e-02 3.202461025e-01 -9.229364998e-01 3.202461025e-01 -9.229364998e-01 -4.771886965e-03 -1.893443804e-02
1.360000e+11 -4.755779911e-03 -1.881751725e-02 3.117084902e-01 -9.257507392e-01 3.117084902e-01 -9.257507392e-01 -4.755779911e-03 -1.881751725e-02
1.370000e+11 -4.733374998e-03 -1.869962083e-02 3.031440711e-01 -9.284872165e-01 3.031440711e-01 -9.284872165e-01 -4.733374998e-03 -1.869962083e-02
1.380000e+11 -4.704654852e-03 -1.858091088e-02 2.945535055e-01 -9.311456638e-01 2.945535055e-01 -9.311456638e-01 -4.704654852e-03 -1.858091088e-02
1.390000e+11 -4.669606854e-03 -1.846155019e-02 2.859374564e-01 -9.337258175e-01 2.859374564e-01 -9.337258175e-01 -4.669606854e-03 -1.846155019e-02
1.400000e+11 -4.628223166e-03 -1.834170213e-02 2.772965897e-01 -9.362274188e-01 2.772965897e-01 -9.362274188e-01 -4.628223166e-03 -1.834170213e-02
1.410000e+11 -4.580500752e-03 -1.822153051e-02 2.686315741e-01 -9.386502131e-01 2.686315741e-01 -9.386502131e-01 -4.580500752e-03 -1.822153051e-02
1.420000e+11 -4.526441404e-03 -1.810119945e-02 2.599430811e-01 -9.409939507e-01 2.599430811e-01 -9.409939507e-01 -4.526441404e-03 -1.810119945e-02
1.430000e+11 -4.466051758e-03 -1.798087324e-02 2.512317853e-01 -9.432583864e-01 2.512317853e-01 -9.432583864e-01 -4.466051758e-03 -1.798087324e-02
1.440000e+11 -4.399343306e-03 -1.786071620e-02 2.424983636e-01 -9.454432797e-01 2.424983636e-01 -9.454432797e-01 -4.399343306e-03 -1.786071620e-02
1.450000e+11 -4.326332408e-03 -1.774089256e-02 2.337434963e-01 -9.475483950e-01 2.337434963e-01 -9.475483950e-01 -4.326332408e-03 -1.774089256e-02
1.460000e+11 -4.247040299e-03 -1.762156632e-02 2.249678660e-01 -9.495735012e-01 2.249678660e-01 -9.495735012e-01 -4.247040299e-03 -1.762156632e-02
1.470000e+11 -4.161493094e-03 -1.750290109e-02 2.161721583e-01 -9.515183723e-01 2.161721583e-01 -9.515183723e-01 -4.161493094e-03 -1.750290109e-02
1.480000e+11 -4.069721784e-03 -1.738505998e-02 2.073570617e-01 -9.533827869e-01 2.073570617e-01 -9.533827869e-01 -4.069721784e-03 -1.738505998e-02
1.490000e+11 -3.971762237e-03 -1.726820548e-02 1.985232672e-01 -9.551665287e-01 1.985232672e-01 -9.551665287e-01 -3.971762237e-03 -1.726820548e-02
1.500000e+11 -3.867655189e-03 -1.715249926e-02 1.896714686e-01 -9.568693863e-01 1.896714686e-01 -9.568693863e-01 -3.867655189e-03 -1.715249926e-02
1.510000e+11 -3.757446232e-03 -1.703810210e-02 1.808023626e-01 -9.584911533e-01 1.808023626e-01 -9.584911533e-01 -3.757446232e-03 -1.703810210e-02
1.520000e+11 -3.641185804e-03 -1.692517372e-02 1.719166484e-01 -9.600316285e-01 1.719166484e-01 -9.600316285e-01 -3.641185804e-03 -1.692517372e-02
1.530000e+11 -3.518929168e-03 -1.681387266e-02 1.630150280e-01 -9.614906154e-01 1.630150280e-01 -9.614906154e-01 -3.518929168e-03 -1.681387266e-02
1.540000e+11 -3.390736394e-03 -1.670435611e-02 1.540982060e-01 -9.628679231e-01 1.540982060e-01 -9.628679231e-01 -3.390736394e-03 -1.670435611e-02
1.550000e+11 -3.256672333e-03 -1.659677983e-02 1.451668897e-01 -9.641633656e-01 1.451668897e-01 -9.641633656e-01 -3.256672333e-03 -1.659677983e-02
1.560000e+11 -3.116806591e-03 -1.649129796e-02 1.362217891e-01 -9.653767622e-01 1.362217891e-01 -9.653767622e-01 -3.116806591e-03 -1.649129796e-02
1.570000e+11 -2.971213493e-03 -1.638806294e-02 1.272636166e-01 -9.665079376e-01 1.272636166e-01 -9.665079376e-01 -2.971213493e-03 -1.638806294e-02
1.580000e+11 -2.819972057e-03 -1.628722531e-02 1.182930874e-01 -9.675567217e-01 1.182930874e-01 -9.675567217e-01 -2.819972057e-03 -1.628722531e-02
1.590000e+11 -2.663165948e-03 -1.618893363e-02 1.093109190e-01 -9.685229499e-01 1.093109190e-01 -9.685229499e-01 -2.663165948e-03 -1.618893363e-02
1.600000e+11 -2.500883441e-03 -1.609333435e-02 1.003178317e-01 -9.694064629e-01 1.003178317e-01 -9.694064629e-01 -2.500883441e-03 -1.609333435e-02
1.610000e+11 -2.333217375e-03 -1.600057163e-02 9.131454803e-02 -9.702071070e-01 9.131454803e-02 -9.702071070e-01 -2.333217375e-03 -1.600057163e-02
1.620000e+11 -2.160265105e-03 -1.591078724e-02 8.230179323e-02 -9.709247339e-01 8.230179323e-02 -9.709247339e-01 -2.160265105e-03 -1.591078724e-02
1.630000e+11 -1.982128450e-03 -1.582412044e-02 7.328029484e-02 -9.715592010e-01 7.328029484e-02 -9.715592010e-01 -1.982128450e-03 -1.582412044e-02
1.640000e+11 -1.798913640e-03 -1.574070785e-02 6.425078283e-02 -9.721103712e-01 6.425078283e-02 -9.721103712e-01 -1.798913640e-03 -1.574070785e-02
1.650000e+11 -1.610731256e-03 -1.566068327e-02 5.521398955e-02 -9.725781133e-01 5.521398955e-02 -9.725781133e-01 -1.610731256e-03 -1.566068327e-02
1.660000e+11 -1.417696167e-03 -1.558417764e-02 4.617064967e-02 -9.729623015e-01 4.617064967e-02 -9.729623015e-01 -1.417696167e-03 -1.558417764e-02
1.670000e+11 -1.219927472e-03 -1.551131884e-02 3.712150018e-02 -9.732628160e-01 3.712150018e-02 -9.732628160e-01 -1.219927472e-03 -1.551131884e-02
1.680000e+11 -1.017548424e-03 -1.544223160e-02 2.806728034e-02 -9.734795428e-01 2.806728034e-02 -9.734795428e-01 -1.017548424e-03 -1.544223160e-02
1.690000e+11 -8.106863636e-04 -1.537703739e-02 1.900873161e-02 -9.736123736e-01 1.900873161e-02 -9.736123736e-01 -8.106863636e-04 -1.537703739e-02
1.700000e+11 -5.994726428e-04 -1.531585425e-02 9.946597682e-03 -9.736612063e-01 9.946597682e-03 -9.736612063e-01 -5.994726428e-04 -1.531585425e-02
1.710000e+11 -3.840425486e-04 -1.525879672e-02 8.816243547e-04 -9.736259443e-01 8.816243547e-04 -9.736259443e-01 -3.840425486e-04 -1.525879672e-02
1.720000e+11 -1.645352213e-04 -1.520597569e-02 -8.185440445e-03 -9.735064976e-01 -8.185440445e-03 -9.735064976e-01 -1.645352213e-04 -1.520597569e-02
1.730000e+11 5.890642890e-05 -1.515749833e-02 -1.725384673e-02 -9.733027817e-01 -1.725384673e-02 -9.733027817e-01 5.890642890e-05 -1.515749833e-02
1.740000e+11 2.861358090e-04 -1.511346789e-02 -2.632284249e-02 -9.730147184e-01 -2.632284249e-02 -9.730147184e-01 2.861358090e-04 -1.511346789e-02
1.750000e+11 5.170027332e-04 -1.507398367e-02 -3.539167376e-02 -9.726422359e-01 -3.539167376e-02 -9.726422359e-01 5.170027332e-04 -1.507398367e-02
1.760000e+11 7.513535160e-04 -1.503914087e-02 -4.445958461e-02 -9.721852682e-01 -4.445958461e-02 -9.721852682e-01 7.513535160e-04 -1.503914087e-02
1.770000e+11 9.890310683e-04 -1.500903050e-02 -5.352581726e-02 -9.716437557e-01 -5.352581726e-02 -9.716437557e-01 9.890310683e-04 -1.500903050e-02
1.780000e+11 1.229874996e-03 -1.498373923e-02 -6.258961209e-02 -9.710176450e-01 -6.258961209e-02 -9.710176450e-01 1.229874996e-03 -1.498373923e-02
1.790000e+11 1.473721704e-03 -1.496334934e-02 -7.165020768e-02 -9.703068892e-01 -7.165020768e-02 -9.703068892e-01 1.473721704e-03 -1.496334934e-02
1.800000e+11 1.720404496e-03 -1.494793858e-02 -8.070684091e-02 -9.695114476e-01 -8.070684091e-02 -9.695114476e-01 1.720404496e-03 -1.494793858e-02
1.810000e+11 1.969753689e-03 -1.493758010e-02 -8.975874696e-02 -9.686312859e-01 -8.975874696e-02 -9.686312859e-01 1.969753689e-03 -1.493758010e-02
1.820000e+11 2.221596719e-03 -1.493234232e-02 -9.880515938e-02 -9.676663763e-01 -9.880515938e-02 -9.676663763e-01 2.221596719e-03 -1.493234232e-02
1.830000e+11 2.475758255e-03 -1.493228883e-02 -1.078453102e-01 -9.666166974e-01 -1.078453102e-01 -9.666166974e-01 2.475758255e-03 -1.493228883e-02
1.840000e+11 2.732060317e-03 -1.493747835e-02 -1.168784298e-01 -9.654822345e-01 -1.168784298e-01 -9.654822345e-01 2.732060317e-03 -1.493747835e-02
1.850000e+11 2.990322393e-03 -1.494796458e-02 -1.259037473e-01 -9.642629793e-01 -1.259037473e-01 -9.642629793e-01 2.990322393e-03 -1.494796458e-02
1.860000e+11 3.250361561e-03 -1.496379614e-02 -1.349204902e-01 -9.629589302e-01 -1.349204902e-01 -9.629589302e-01 3.250361561e-03 -1.496379614e-02
1.870000e+11 3.511992613e-03 -1.498501646e-02 -1.439278848e-01 -9.615700922e-01 -1.439278848e-01 -9.615700922e-01 3.511992613e-03 -1.498501646e-02
1.880000e+11 3.775028179e-03 -1.501166376e-02 -1.529251561e-01 -9.600964768e-01 -1.529251561e-01 -9.600964768e-01 3.775028179e-03 -1.501166376e-02
1.890000e+11 4.039278860e-03 -1.504377087e-02 -1.619115278e-01 -9.585381025e-01 -1.619115278e-01 -9.585381025e-01 4.039278860e-03 -1.504377087e-02
1.900000e+11 4.304553358e-03 -1.508136524e-02 -1.708862226e-01 -9.568949945e-01 -1.708862226e-01 -9.568949945e-01 4.304553358e-03 -1.508136524e-02
1.910000e+11 4.570658607e-03 -1.512446883e-02 -1.798484619e-01 -9.551671846e-01 -1.798484619e-01 -9.551671846e-01 4.570658607e-03 -1.512446883e-02
1.920000e+11 4.837399914e-03 -1.517309804e-02 -1.887974662e-01 -9.533547115e-01 -1.887974662e-01 -9.533547115e-01 4.837399914e-03 -1.517309804e-02
1.930000e+11 5.104581093e-03 -1.522726362e-02 -1.977324549e-01 -9.514576207e-01 -1.977324549e-01 -9.514576207e-01 5.104581093e-03 -1.522726362e-02
1.940000e+11 5.372004607e-03 -1.528697065e-02 -2.066526466e-01 -9.494759648e-01 -2.066526466e-01 -9.494759648e-01 5.372004607e-03 -1.528697065e-02
1.950000e+11 5.639471712e-03 -1.535221846e-02 -2.155572590e-01 -9.474098030e-01 -2.155572590e-01 -9.474098030e-01 5.639471712e-03 -1.535221846e-02
1.960000e+11 5.906782600e-03 -1.542300053e-02 -2.244455091e-01 -9.452592016e-01 -2.244455091e-01 -9.452592016e-01 5.906782600e-03 -1.542300053e-02
1.970000e+11 6.173736547e-03 -1.549930449e-02 -2.333166131e-01 -9.430242337e-01 -2.333166131e-01 -9.430242337e-01 6.173736547e-03 -1.549930449e-02
1.980000e+11 6.440132060e-03 -1.558111206e-02 -2.421697866e-01 -9.407049797e-01 -2.421697866e-01 -9.407049797e-01 6.440132060e-03 -1.558111206e-02
1.990000e+11 6.705767031e-03 -1.566839895e-02 -2.510042446e-01 -9.383015266e-01 -2.510042446e-01 -9.383015266e-01 6.705767031e-03 -1.566839895e-02
2.000000e+11 6.970438886e-03 -1.576113488e-02 -2.598192015e-01 -9.358139688e-01 -2.598192015e-01 -9.358139688e-01 6.970438886e-03 -1.576113488e-02
2.010000e+11 7.233944742e-03 -1.585928349e-02 -2.686138715e-01 -9.332424074e-01 -2.686138715e-01 -9.332424074e-01 7.233944742e-03 -1.585928349e-02
2.020000e+11 7.496081560e-03 -1.596280232e-02 -2.773874682e-01 -9.305869509e-01 -2.773874682e-01 -9.305869509e-01 7.496081560e-03 -1.596280232e-02
2.030000e+11 7.756646305e-03 -1.607164278e-02 -2.861392051e-01 -9.278477147e-01 -2.861392051e-01 -9.278477147e-01 7.756646305e-03 -1.607164278e-02
2.040000e+11 8.015436106e-03 -1.618575011e-02 -2.948682953e-01 -9.250248213e-01 -2.948682953e-01 -9.250248213e-01 8.015436106e-03 -1.618575011e-02
2.050000e+11 8.272248413e-03 -1.630506335e-02 -3.035739517e-01 -9.221184006e-01 -3.035739517e-01 -9.221184006e-01 8.272248413e-03 -1.630506335e-02
2.060000e+11 8.526881160e-03 -1.642951531e-02 -3.122553874e-01 -9.191285891e-01 -3.122553874e-01 -9.191285891e-01 8.526881160e-03 -1.642951531e-02
2.070000e+11 8.779132932e-03 -1.655903257e-02 -3.209118152e-01 -9.160555311e-01 -3.209118152e-01 -9.160555311e-01 8.779132932e-03 -1.655903257e-02
2.080000e+11 9.028803126e-03 -1.669353544e-02 -3.295424480e-01 -9.128993776e-01 -3.295424480e-01 -9.128993776e-01 9.028803126e-03 -1.669353544e-02
2.090000e+11 9.275692115e-03 -1.683293797e-02 -3.381464990e-01 -9.096602869e-01 -3.381464990e-01 -9.096602869e-01 9.275692115e-03 -1.683293797e-02
2.100000e+11 9.519601421e-03 -1.697714792e-02 -3.467231815e-01 -9.063384247e-01 -3.467231815e-01 -9.063384247e-01 9.519601421e-03 -1.697714792e-02
2.110000e+11 9.760333875e-03 -1.712606677e-02 -3.552717089e-01 -9.029339636e-01 -3.552717089e-01 -9.029339636e-01 9.760333875e-03 -1.712606677e-02
2.120000e+11 9.997693794e-03 -1.727958970e-02 -3.637912953e-01 -8.994470836e-01 -3.637912953e-01 -8.994470836e-01 9.997693794e-03 -1.727958970e-02
2.130000e+11 1.023148714e-02 -1.743760562e-02 -3.722811548e-01 -8.958779718e-01 -3.722811548e-01 -8.958779718e-01 1.023148714e-02 -1.743760562e-02
2.140000e+11 1.046152171e-02 -1.759999715e-02 -3.807405024e-01 -8.922268227e-01 -3.807405024e-01 -8.922268227e-01 1.046152171e-02 -1.759999715e-02
2.150000e+11 1.068760727e-02 -1.776664065e-02 -3.891685534e-01 -8.884938377e-01 -3.891685534e-01 -8.884938377e-01 1.068760727e-02 -1.776664065e-02
2.160000e+11 1.090955577e-02 -1.793740622e-02 -3.975645237e-01 -8.846792259e-01 -3.975645237e-01 -8.846792259e-01 1.090955577e-02 -1.793740622e-02
2.170000e+11 1.112718149e-02 -1.811215775e-02 -4.059276300e-01 -8.807832031e-01 -4.059276300e-01 -8.807832031e-01 1.112718149e-02 -1.811215775e-02
2.180000e+11 1.134030122e-02 -1.829075288e-02 -4.142570899e-01 -8.768059927e-01 -4.142570899e-01 -8.768059927e-01 1.134030122e-02 -1.829075288e-02
2.190000e+11 1.154873443e-02 -1.847304311e-02 -4.225521216e-01 -8.727478251e-01 -4.225521216e-01 -8.727478251e-01 1.154873443e-02 -1.847304311e-02
2.200000e+11 1.175230344e-02 -1.865887376e-02 -4.308119443e-01 -8.686089382e-01 -4.308119443e-01 -8.686089382e-01 1.175230344e-02 -1.865887376e-02
2.210000e+11 1.195083360e-02 -1.884808405e-02 -4.390357782e-01 -8.643895768e-01 -4.390357782e-01 -8.643895768e-01 1.195083360e-02 -1.884808405e-02
2.220000e+11 1.214415346e-02 -1.904050712e-02 -4.472228447e-01 -8.600899931e-01 -4.472228447e-01 -8.600899931e-01 1.214415346e-02 -1.904050712e-02
2.230000e+11 1.233209494e-02 -1.923597010e-02 -4.553723660e-01 -8.557104465e-01 -4.553723660e-01 -8.557104465e-01 1.233209494e-02 -1.923597010e-02
2.240000e+11 1.251449352e-02 -1.943429411e-02 -4.634835658e-01 -8.512512034e-01 -4.634835658e-01 -8.512512034e-01 1.251449352e-02 -1.943429411e-02
2.250000e+11 1.269118837e-02 -1.963529436e-02 -4.715556688e-01 -8.467125376e-01 -4.715556688e-01 -8.467125376e-01 1.269118837e-02 -1.963529436e-02
2.260000e+11 1.286202258e-02 -1.983878019e-02 -4.795879013e-01 -8.420947300e-01 -4.795879013e-01 -8.420947300e-01 1.286202258e-02 -1.983878019e-02
2.270000e+11 1.302684330e-02 -2.004455513e-02 -4.875794907e-01 -8.373980687e-01 -4.875794907e-01 -8.373980687e-01 1.302684330e-02 -2.004455513e-02
2.280000e+11 1.318550189e-02 -2.025241697e-02 -4.955296660e-01 -8.326228489e-01 -4.955296660e-01 -8.326228489e-01 1.318550189e-02 -2.025241697e-02
2.290000e+11 1.333785414e-02 -2.046215782e-02 -5.034376577e-01 -8.277693730e-01 -5.034376577e-01 -8.277693730e-01 1.333785414e-02 -2.046215782e-02
2.300000e+11 1.348376039e-02 -2.067356422e-02 -5.113026981e-01 -8.228379503e-01 -5.113026981e-01 -8.228379503e-01 1.348376039e-02 -2.067356422e-02
2.310000e+11 1.362308576e-02 -2.088641716e-02 -5.191240206e-01 -8.178288976e-01 -5.191240206e-01 -8.178288976e-01 1.362308576e-02 -2.088641716e-02
2.320000e+11 1.375570026e-02 -2.110049222e-02 -5.269008610e-01 -8.127425385e-01 -5.269008610e-01 -8.127425385e-01 1.375570026e-02 -2.110049222e-02
2.330000e+11 1.388147896e-02 -2.131555963e-02 -5.346324563e-01 -8.075792036e-01 -5.346324563e-01 -8.075792036e-01 1.388147896e-02 -2.131555963e-02
2.340000e+11 1.400030222e-02 -2.153138438e-02 -5.423180456e-01 -8.023392309e-01 -5.423180456e-01 -8.023392309e-01 1.400030222e-02 -2.153138438e-02
2.350000e+11 1.411205577e-02 -2.174772627e-02 -5.499568698e-01 -7.970229651e-01 -5.499568698e-01 -7.970229651e-01 1.411205577e-02 -2.174772627e-02
2.360000e+11 1.421663093e-02 -2.196434010e-02 -5.575481719e-01 -7.916307581e-01 -5.575481719e-01 -7.916307581e-01 1.421663093e-02 -2.196434010e-02
2.370000e+11 1.431392477e-02 -2.218097566e-02 -5.650911966e-01 -7.861629686e-01 -5.650911966e-01 -7.861629686e-01 1.431392477e-02 -2.218097566e-02
2.380000e+11 1.440384023e-02 -2.239737797e-02 -5.725851910e-01 -7.806199626e-01 -5.725851910e-01 -7.806199626e-01 1.440384023e-02 -2.239737797e-02
2.390000e+11 1.448628633e-02 -2.261328726e-02 -5.800294041e-01 -7.750021127e-01 -5.800294041e-01 -7.750021127e-01 1.448628633e-02 -2.261328726e-02
2.400000e+11 1.456117828e-02 -2.282843921e-02 -5.874230870e-01 -7.693097986e-01 -5.874230870e-01 -7.693097986e-01 1.456117828e-02 -2.282843921e-02
2.410000e+11 1.462843768e-02 -2.304256498e-02 -5.947654933e-01 -7.635434069e-01 -5.947654933e-01 -7.635434069e-01 1.462843768e-02 -2.304256498e-02
2.420000e+11 1.468799263e-02 -2.325539141e-02 -6.020558786e-01 -7.577033310e-01 -6.020558786e-01 -7.577033310e-01 1.468799263e-02 -2.325539141e-02
2.430000e+11 1.473977792e-02 -2.346664109e-02 -6.092935009e-01 -7.517899713e-01 -6.092935009e-01 -7.517899713e-01 1.473977792e-02 -2.346664109e-02
2.440000e+11 1.478373517e-02 -2.367603253e-02 -6.164776206e-01 -7.458037348e-01 -6.164776206e-01 -7.458037348e-01 1.478373517e-02 -2.367603253e-02
2.450000e+11 1.481981294e-02 -2.388328030e-02 -6.236075005e-01 -7.397450356e-01 -6.236075005e-01 -7.397450356e-01 1.481981294e-02 -2.388328030e-02
2.460000e+11 1.484796694e-02 -2.408809516e-02 -6.306824057e-01 -7.336142943e-01 -6.306824057e-01 -7.336142943e-01 1.484796694e-02 -2.408809516e-02
2.470000e+11 1.486816011e-02 -2.429018424e-02 -6.377016039e-01 -7.274119385e-01 -6.377016039e-01 -7.274119385e-01 1.486816011e-02 -2.429018424e-02
2.480000e+11 1.488036280e-02 -2.448925113e-02 -6.446643656e-01 -7.211384022e-01 -6.446643656e-01 -7.211384022e-01 1.488036280e-02 -2.448925113e-02
2.490000e+11 1.488455290e-02 -2.468499612e-02 -6.515699633e-01 -7.147941265e-01 -6.515699633e-01 -7.147941265e-01 1.488455290e-02 -2.468499612e-02
2.500000e+11 1.488071597e-02 -2.487711628e-02 -6.584176727e-01 -7.083795590e-01 -6.584176727e-01 -7.083795590e-01 1.488071597e-02 -2.487711628e-02
2.510000e+11 1.486884534e-02 -2.506530568e-02 -6.652067717e-01 -7.018951538e-01 -6.652067717e-01 -7.018951538e-01 1.486884534e-02 -2.506530568e-02
2.520000e+11 1.484894232e-02 -2.524925556e-02 -6.719365413e-01 -6.953413720e-01 -6.719365413e-01 -6.953413720e-01 1.484894232e-02 -2.524925556e-02
2.530000e+11 1.482101623e-02 -2.542865444e-02 -6.786062648e-01 -6.887186809e-01 -6.786062648e-01 -6.887186809e-01 1.482101623e-02 -2.542865444e-02
2.540000e+11 1.478508461e-02 -2.560318839e-02 -6.852152286e-01 -6.820275547e-01 -6.852152286e-01 -6.820275547e-01 1.478508461e-02 -2.560318839e-02
2.550000e+11 1.474117327e-02 -2.577254115e-02 -6.917627216e-01 -6.752684741e-01 -6.917627216e-01 -6.752684741e-01 1.474117327e-02 -2.577254115e-02
2.560000e+11 1.468931645e-02 -2.593639430e-02 -6.982480359e-01 -6.684419262e-01 -6.982480359e-01 -6.684419262e-01 1.468931645e-02 -2.593639430e-02
2.570000e+11 1.462955690e-02 -2.609442751e-02 -7.046704659e-01 -6.615484047e-01 -7.046704659e-01 -6.615484047e-01 1.462955690e-02 -2.609442751e-02
2.580000e+11 1.456194604e-02 -2.624631870e-02 -7.110293095e-01 -6.545884099e-01 -7.110293095e-01 -6.545884099e-01 1.456194604e-02 -2.624631870e-02
2.590000e+11 1.448654398e-02 -2.639174422e-02 -7.173238670e-01 -6.475624485e-01 -7.173238670e-01 -6.475624485e-01 1.448654398e-02 -2.639174422e-02
2.600000e+11 1.440341974e-02 -2.653037908e-02 -7.235534419e-01 -6.404710335e-01 -7.235534419e-01 -6.404710335e-01 1.440341974e-02 -2.653037908e-02
2.610000e+11 1.431265123e-02 -2.666189713e-02 -7.297173405e-01 -6.333146847e-01 -7.297173405e-01 -6.333146847e-01 1.431265123e-02 -2.666189713e-02
2.620000e+11 1.421432543e-02 -2.678597130e-02 -7.358148722e-01 -6.260939280e-01 -7.358148722e-01 -6.260939280e-01 1.421432543e-02 -2.678597130e-02
2.630000e+11 1.410853843e-02 -2.690227377e-02 -7.418453493e-01 -6.188092959e-01 -7.418453493e-01 -6.188092959e-01 1.410853843e-02 -2.690227377e-02
2.640000e+11 1.399539554e-02 -2.701047622e-02 -7.478080871e-01 -6.114613272e-01 -7.478080871e-01 -6.114613272e-01 1.399539554e-02 -2.701047622e-02
2.650000e+11 1.387501137e-02 -2.711025001e-02 -7.537024040e-01 -6.040505672e-01 -7.537024040e-01 -6.040505672e-01 1.387501137e-02 -2.711025001e-02
2.660000e+11 1.374750990e-02 -2.720126644e-02 -7.595276214e-01 -5.965775674e-01 -7.595276214e-01 -5.965775674e-01 1.374750990e-02 -2.720126644e-02
2.670000e+11 1.361302456e-02 -2.728319698e-02 -7.652830638e-01 -5.890428858e-01 -7.652830638e-01 -5.890428858e-01 1.361302456e-02 -2.728319698e-02
2.680000e+11 1.347169829e-02 -2.735571343e-02 -7.709680587e-01 -5.814470867e-01 -7.709680587e-01 -5.814470867e-01 1.347169829e-02 -2.735571343e-02
2.690000e+11 1.332368363e-02 -2.741848824e-02 -7.765819367e-01 -5.737907408e-01 -7.765819367e-01 -5.737907408e-01 1.332368363e-02 -2.741848824e-02
2.700000e+11 1.316914273e-02 -2.747119468e-02 -7.821240318e-01 -5.660744250e-01 -7.821240318e-01 -5.660744250e-01 1.316914273e-02 -2.747119468e-02
2.710000e+11 1.300824747e-02 -2.751350712e-02 -7.875936806e-01 -5.582987228e-01 -7.875936806e-01 -5.582987228e-01 1.300824747e-02 -2.751350712e-02
2.720000e+11 1.284117944e-02 -2.754510124e-02 -7.929902233e-01 -5.504642237e-01 -7.929902233e-01 -5.504642237e-01 1.284117944e-02 -2.754510124e-02
2.730000e+11 1.266813006e-02 -2.756565428e-02 -7.983130029e-01 -5.425715240e-01 -7.983130029e-01 -5.425715240e-01 1.266813006e-02 -2.756565428e-02
2.740000e+11 1.248930054e-02 -2.757484530e-02 -8.035613658e-01 -5.346212258e-01 -8.035613658e-01 -5.346212258e-01 1.248930054e-02 -2.757484530e-02
2.750000e+11 1.230490199e-02 -2.757235542e-02 -8.087346615e-01 -5.266139379e-01 -8.087346615e-01 -5.266139379e-01 1.230490199e-02 -2.757235542e-02
2.760000e+11 1.211515539e-02 -2.755786807e-02 -8.138322425e-01 -5.185502754e-01 -8.138322425e-01 -5.185502754e-01 1.211515539e-02 -2.755786807e-02
2.770000e+11 1.192029166e-02 -2.753106926e-02 -8.188534647e-01 -5.104308597e-01 -8.188534647e-01 -5.104308597e-01 1.192029166e-02 -2.753106926e-02
2.780000e+11 1.172055164e-02 -2.749164781e-02 -8.237976872e-01 -5.022563187e-01 -8.237976872e-01 -5.022563187e-01 1.172055164e-02 -2.749164781e-02
2.790000e+11 1.151618614e-02 -2.743929563e-02 -8.286642721e-01 -4.940272865e-01 -8.286642721e-01 -4.940272865e-01 1.151618614e-02 -2.743929563e-02
2.800000e+11 1.130745591e-02 -2.737370798e-02 -8.334525850e-01 -4.857444038e-01 -8.334525850e-01 -4.857444038e-01 1.130745591e-02 -2.737370798e-02
2.810000e+11 1.109463167e-02 -2.729458373e-02 -8.381619943e-01 -4.774083175e-01 -8.381619943e-01 -4.774083175e-01 1.109463167e-02 -2.729458373e-02
2.820000e+11 1.087799410e-02 -2.720162564e-02 -8.427918721e-01 -4.690196813e-01 -8.427918721e-01 -4.690196813e-01 1.087799410e-02 -2.720162564e-02
2.830000e+11 1.065783382e-02 -2.709454058e-02 -8.473415935e-01 -4.605791550e-01 -8.473415935e-01 -4.605791550e-01 1.065783382e-02 -2.709454058e-02
2.840000e+11 1.043445140e-02 -2.697303989e-02 -8.518105368e-01 -4.520874051e-01 -8.518105368e-01 -4.520874051e-01 1.043445140e-02 -2.697303989e-02
2.850000e+11 1.020815728e-02 -2.683683957e-02 -8.561980836e-01 -4.435451047e-01 -8.561980836e-01 -4.435451047e-01 1.020815728e-02 -2.683683957e-02
2.860000e+11 9.979271828e-03 -2.668566059e-02 -8.605036190e-01 -4.349529332e-01 -8.605036190e-01 -4.349529332e-01 9.979271828e-03 -2.668566059e-02
2.870000e+11 9.748125226e-03 -2.651922916e-02 -8.647265310e-01 -4.263115769e-01 -8.647265310e-01 -4.263115769e-01 9.748125226e-03 -2.651922916e-02
2.880000e+11 9.515057472e-03 -2.633727702e-02 -8.688662112e-01 -4.176217285e-01 -8.688662112e-01 -4.176217285e-01 9.515057472e-03 -2.633727702e-02
2.890000e+11 9.280418322e-03 -2.613954171e-02 -8.729220544e-01 -4.088840875e-01 -8.729220544e-01 -4.088840875e-01 9.280418322e-03 -2.613954171e-02
2.900000e+11 9.044567233e-03 -2.592576685e-02 -8.768934588e-01 -4.000993601e-01 -8.768934588e-01 -4.000993601e-01 9.044567233e-03 -2.592576685e-02
2.910000e+11 8.807873307e-03 -2.569570243e-02 -8.807798258e-01 -3.912682593e-01 -8.807798258e-01 -3.912682593e-01 8.807873307e-03 -2.569570243e-02
2.920000e+11 8.570715220e-03 -2.544910507e-02 -8.845805603e-01 -3.823915048e-01 -8.845805603e-01 -3.823915048e-01 8.570715220e-03 -2.544910507e-02
2.930000e+11 8.333481149e-03 -2.518573835e-02 -8.882950705e-01 -3.734698234e-01 -8.882950705e-01 -3.734698234e-01 8.333481149e-03 -2.518573835e-02
2.940000e+11 8.096568687e-03 -2.490537305e-02 -8.919227682e-01 -3.645039486e-01 -8.919227682e-01 -3.645039486e-01 8.096568687e-03 -2.490537305e-02
2.950000e+11 7.860384761e-03 -2.460778746e-02 -8.954630683e-01 -3.554946209e-01 -8.954630683e-01 -3.554946209e-01 7.860384761e-03 -2.460778746e-02
2.960000e+11 7.625345529e-03 -2.429276768e-02 -8.989153895e-01 -3.464425881e-01 -8.989153895e-01 -3.464425881e-01 7.625345529e-03 -2.429276768e-02
2.970000e+11 7.391876281e-03 -2.396010787e-02 -9.022791537e-01 -3.373486048e-01 -9.022791537e-01 -3.373486048e-01 7.391876281e-03 -2.396010787e-02
2.980000e+11 7.160411327e-03 -2.360961057e-02 -9.055537866e-01 -3.282134329e-01 -9.055537866e-01 -3.282134329e-01 7.160411327e-03 -2.360961057e-02
2.990000e+11 6.931393879e-03 -2.324108698e-02 -9.087387172e-01 -3.190378416e-01 -9.087387172e-01 -3.190378416e-01 6.931393879e-03 -2.324108698e-02
3.000000e+11 6.705275924e-03 -2.285435725e-02 -9.118333783e-01 -3.098226074e-01 -9.118333783e-01 -3.098226074e-01 6.705275924e-03 -2.285435725e-02
3.010000e+11 6.482518093e-03 -2.244925076e-02 -9.148372063e-01 -3.005685142e-01 -9.148372063e-01 -3.005685142e-01 6.482518093e-03 -2.244925076e-02
3.020000e+11 6.263589518e-03 -2.202560644e-02 -9.177496410e-01 -2.912763533e-01 -9.177496410e-01 -2.912763533e-01 6.263589518e-03 -2.202560644e-02
3.030000e+11 6.048967683e-03 -2.158327300e-02 -9.205701264e-01 -2.819469236e-01 -9.205701264e-01 -2.819469236e-01 6.048967683e-03 -2.158327300e-02
3.040000e+11 5.839138268e-03 -2.112210928e-02 -9.232981098e-01 -2.725810318e-01 -9.232981098e-01 -2.725810318e-01 5.839138268e-03 -2.112210928e-02
3.050000e+11 5.634594981e-03 -2.064198451e-02 -9.259330426e-01 -2.631794919e-01 -9.259330426e-01 -2.631794919e-01 5.634594981e-03 -2.064198451e-02
3.060000e+11 5.435839389e-03 -2.014277859e-02 -9.284743801e-01 -2.537431263e-01 -9.284743801e-01 -2.537431263e-01 5.435839389e-03 -2.014277859e-02
3.070000e+11 5.243380733e-03 -1.962438239e-02 -9.309215815e-01 -2.442727648e-01 -9.309215815e-01 -2.442727648e-01 5.243380733e-03 -1.962438239e-02
3.080000e+11 5.057735738e-03 -1.908669803e-02 -9.332741099e-01 -2.347692455e-01 -9.332741099e-01 -2.347692455e-01 5.057735738e-03 -1.908669803e-02
3.090000e+11 4.879428416e-03 -1.852963916e-02 -9.355314326e-01 -2.252334144e-01 -9.355314326e-01 -2.252334144e-01 4.879428416e-03 -1.852963916e-02
3.100000e+11 4.708989859e-03 -1.795313124e-02 -9.376930210e-01 -2.156661259e-01 -9.376930210e-01 -2.156661259e-01 4.708989859e-03 -1.795313124e-02
3.110000e+11 4.546958023e-03 -1.735711184e-02 -9.397583509e-01 -2.060682425e-01 -9.397583509e-01 -2.060682425e-01 4.546958023e-03 -1.735711184e-02
3.120000e+11 4.393877502e-03 -1.674153090e-02 -9.417269022e-01 -1.964406352e-01 -9.417269022e-01 -1.964406352e-01 4.393877502e-03 -1.674153090e-02
3.130000e+11 4.250299299e-03 -1.610635100e-02 -9.435981593e-01 -1.867841835e-01 -9.435981593e-01 -1.867841835e-01 4.250299299e-03 -1.610635100e-02
3.140000e+11 4.116780581e-03 -1.545154766e-02 -9.453716112e-01 -1.770997754e-01 -9.453716112e-01 -1.770997754e-01 4.116780581e-03 -1.545154766e-02
3.150000e+11 3.993884427e-03 -1.477710958e-02 -9.470467515e-01 -1.673883077e-01 -9.470467515e-01 -1.673883077e-01 3.993884427e-03 -1.477710958e-02
3.160000e+11 3.882179573e-03 -1.408303894e-02 -9.486230784e-01 -1.576506860e-01 -9.486230784e-01 -1.576506860e-01 3.882179573e-03 -1.408303894e-02
3.170000e+11 3.782240137e-03 -1.336935165e-02 -9.501000950e-01 -1.478878247e-01 -9.501000950e-01 -1.478878247e-01 3.782240137e-03 -1.336935165e-02
3.180000e+11 3.694645346e-03 -1.263607759e-02 -9.514773094e-01 -1.381006475e-01 -9.514773094e-01 -1.381006475e-01 3.694645346e-03 -1.263607759e-02
3.190000e+11 3.619979246e-03 -1.188326092e-02 -9.527542347e-01 -1.282900869e-01 -9.527542347e-01 -1.282900869e-01 3.619979246e-03 -1.188326092e-02
3.200000e+11 3.558830406e-03 -1.111096029e-02 -9.539303893e-01 -1.184570849e-01 -9.539303893e-01 -1.184570849e-01 3.558830406e-03 -1.111096029e-02
3.210000e+11 3.511791614e-03 -1.031924912e-02 -9.550052968e-01 -1.086025928e-01 -9.550052968e-01 -1.086025928e-01 3.511791614e-03 -1.031924912e-02
3.220000e+11 3.479459557e-03 -9.508215816e-03 -9.559784866e-01 -9.872757122e-02 -9.559784866e-01 -9.872757122e-02 3.479459557e-03 -9.508215816e-03
3.230000e+11 3.462434502e-03 -8.677964048e-03 -9.568494934e-01 -8.883299057e-02 -9.568494934e-01 -8.883299057e-02 3.462434502e-03 -8.677964048e-03
3.240000e+11 3.461319957e-03 -7.828612964e-03 -9.576178579e-01 -7.891983083e-02 -9.576178579e-01 -7.891983083e-02 3.461319957e-03 -7.828612964e-03
3.250000e+11 3.476722333e-03 -6.960297429e-03 -9.582831268e-01 -6.898908178e-02 -9.582831268e-01 -6.898908178e-02 3.476722333e-03 -6.960297429e-03
3.260000e+11 3.509250586e-03 -6.073168251e-03 -9.588448527e-01 -5.904174312e-02 -9.588448527e-01 -5.904174312e-02 3.509250586e-03 -6.073168251e-03
3.270000e+11 3.559515854e-03 -5.167392402e-03 -9.593025949e-01 -4.907882454e-02 -9.593025949e-01 -4.907882454e-02 3.559515854e-03 -5.167392402e-03
3.280000e+11 3.628131091e-03 -4.243153234e-03 -9.596559189e-01 -3.910134587e-02 -9.596559189e-01 -3.910134587e-02 3.628131091e-03 -4.243153234e-03
3.290000e+11 3.715710679e-03 -3.300650686e-03 -9.599043970e-01 -2.911033713e-02 -9.599043970e-01 -2.911033713e-02 3.715710679e-03 -3.300650686e-03
3.300000e+11 3.822870039e-03 -2.340101487e-03 -9.600476085e-01 -1.910683867e-02 -9.600476085e-01 -1.910683867e-02 3.822870039e-03 -2.340101487e-03
3.310000e+11 3.950225232e-03 -1.361739351e-03 -9.600851398e-01 -9.091901238e-03 -9.600851398e-01 -9.091901238e-03 3.950225232e-03 -1.361739351e-03
3.320000e+11 4.098392545e-03 -3.658151632e-04 -9.600165845e-01 9.334138962e-04 -9.600165845e-01 9.334138962e-04 4.098392545e-03 -3.658151632e-04
3.330000e+11 4.267988075e-03 6.474028381e-04 -9.598415440e-01 1.096803487e-02 -9.598415440e-01 1.096803487e-02 4.267988075e-03 6.474028381e-04
3.340000e+11 4.459627297e-03 1.677628892e-03 -9.595596274e-01 2.101087911e-02 -9.595596274e-01 2.101087911e-02 4.459627297e-03 1.677628892e-03
3.350000e+11 4.673924630e-03 2.724559552e-03 -9.591704517e-01 3.106085331e-02 -9.591704517e-01 3.106085331e-02 4.673924630e-03 2.724559552e-03
3.360000e+11 4.911492981e-03 3.787873528e-03 -9.586736425e-01 4.111685327e-02 -9.586736425e-01 4.111685327e-02 4.911492981e-03 3.787873528e-03
3.370000e+11 5.172943297e-03 4.867231544e-03 -9.580688337e-01 5.117776387e-02 -9.580688337e-01 5.117776387e-02 5.172943297e-03 4.867231544e-03
3.380000e+11 5.458884094e-03 5.962276203e-03 -9.573556682e-01 6.124245900e-02 -9.573556682e-01 6.124245900e-02 5.458884094e-03 5.962276203e-03
3.390000e+11 5.769920980e-03 7.072631860e-03 -9.565337979e-01 7.130980146e-02 -9.565337979e-01 7.130980146e-02 5.769920980e-03 7.072631860e-03
3.400000e+11 6.106656175e-03 8.197904505e-03 -9.556028840e-01 8.137864294e-02 -9.556028840e-01 8.137864294e-02 6.106656175e-03 8.197904505e-03
3.410000e+11 6.469688016e-03 9.337681661e-03 -9.545625977e-01 9.144782393e-02 -9.545625977e-01 9.144782393e-02 6.469688016e-03 9.337681661e-03
3.420000e+11 6.859610454e-03 1.049153229e-02 -9.534126198e-01 1.015161737e-01 -9.534126198e-01 1.015161737e-01 6.859610454e-03 1.049153229e-02
3.430000e+11 7.277012547e-03 1.165900670e-02 -9.521526417e-01 1.115825103e-01 -9.521526417e-01 1.115825103e-01 7.277012547e-03 1.165900670e-02
3.440000e+11 7.722477937e-03 1.283963651e-02 -9.507823651e-01 1.216456403e-01 -9.507823651e-01 1.216456403e-01 7.722477937e-03 1.283963651e-02
3.450000e+11 8.196584327e-03 1.403293454e-02 -9.493015028e-01 1.317043592e-01 -9.493015028e-01 1.317043592e-01 8.196584327e-03 1.403293454e-02
3.460000e+11 8.699902944e-03 1.523839480e-02 -9.477097789e-01 1.417574509e-01 -9.477097789e-01 1.417574509e-01 8.699902944e-03 1.523839480e-02
3.470000e+11 9.232997996e-03 1.645549246e-02 -9.460069290e-01 1.518036881e-01 -9.460069290e-01 1.518036881e-01 9.232997996e-03 1.645549246e-02
3.480000e+11 9.796426126e-03 1.768368382e-02 -9.441927007e-01 1.618418322e-01 -9.441927007e-01 1.618418322e-01 9.796426126e-03 1.768368382e-02
3.490000e+11 1.039073585e-02 1.892240629e-02 -9.422668536e-01 1.718706329e-01 -9.422668536e-01 1.718706329e-01 1.039073585e-02 1.892240629e-02
3.500000e+11 1.101646699e-02 2.017107845e-02 -9.402291604e-01 1.818888291e-01 -9.402291604e-01 1.818888291e-01 1.101646699e-02 2.017107845e-02
