! Inductor model fitted by inductor_fit.py from inductor_500p.s2p
#   Hz   S  RI   R   50
1.000000e+07 1.567269795e-02 2.194657902e-04 9.843272464e-01 -3.135108225e-04 9.843272464e-01 -3.135108225e-04 1.567269795e-02 2.194657902e-04
2.000000e+07 1.567288017e-02 4.389317491e-04 9.843268970e-01 -6.270209958e-04 9.843268970e-01 -6.270209958e-04 1.567288017e-02 4.389317491e-04
1.000000e+09 1.629362036e-02 2.197071493e-02 9.831824026e-01 -3.124741269e-02 9.831824026e-01 -3.124741269e-02 1.629362036e-02 2.197071493e-02
2.000000e+09 1.827910427e-02 4.401170445e-02 9.799376224e-01 -6.195939678e-02 9.799376224e-01 -6.195939678e-02 1.827910427e-02 4.401170445e-02
3.000000e+09 2.180947683e-02 6.596936280e-02 9.749604528e-01 -9.188099624e-02 9.749604528e-01 -9.188099624e-02 2.180947683e-02 6.596936280e-02
4.000000e+09 2.691049824e-02 8.757453248e-02 9.685415249e-01 -1.209680813e-01 9.685415249e-01 -1.209680813e-01 2.691049824e-02 8.757453248e-02
5.000000e+09 3.347196425e-02 1.086052123e-01 9.608623932e-01 -1.492342288e-01 9.608623932e-01 -1.492342288e-01 3.347196425e-02 1.086052123e-01
6.000000e+09 4.133842804e-02 1.289283987e-01 9.520447998e-01 -1.766932668e-01 9.520447998e-01 -1.766932668e-01 4.133842804e-02 1.289283987e-01
7.000000e+09 5.036286621e-02 1.484779317e-01 9.421812793e-01 -2.033538121e-01 9.421812793e-01 -2.033538121e-01 5.036286621e-02 1.484779317e-01
8.000000e+09 6.042377560e-02 1.672250634e-01 9.313462455e-01 -2.292212066e-01 9.313462455e-01 -2.292212066e-01 6.042377560e-02 1.672250634e-01
9.000000e+09 7.142507952e-02 1.851577630e-01 9.196008227e-01 -2.542973864e-01 9.196008227e-01 -2.542973864e-01 7.142507952e-02 1.851577630e-01
1.000000e+10 8.329036830e-02 2.022689684e-01 9.069967104e-01 -2.785799303e-01 9.069967104e-01 -2.785799303e-01 8.329036830e-02 2.022689684e-01
1.100000e+10 9.595645369e-02 2.185509935e-01 8.935798060e-01 -3.020617036e-01 8.935798060e-01 -3.020617036e-01 9.595645369e-02 2.185509935e-01
1.200000e+10 1.093680200e-01 2.339935899e-01 8.793932419e-01 -3.247313721e-01 8.793932419e-01 -3.247313721e-01 1.093680200e-01 2.339935899e-01
1.300000e+10 1.234737683e-01 2.485839345e-01 8.644795982e-01 -3.465745104e-01 8.644795982e-01 -3.465745104e-01 1.234737683e-01 2.485839345e-01
1.400000e+10 1.382239100e-01 2.623074847e-01 8.488822973e-01 -3.675749509e-01 8.488822973e-01 -3.675749509e-01 1.382239100e-01 2.623074847e-01
1.500000e+10 1.535687030e-01 2.751491030e-01 8.326463228e-01 -3.877161086e-01 8.326463228e-01 -3.877161086e-01 1.535687030e-01 2.751491030e-01
1.600000e+10 1.694577286e-01 2.870941487e-01 8.158184456e-01 -4.069821386e-01 8.158184456e-01 -4.069821386e-01 1.694577286e-01 2.870941487e-01
1.700000e+10 1.858396590e-01 2.981294036e-01 7.984471206e-01 -4.253588675e-01 7.984471206e-01 -4.253588675e-01 1.858396590e-01 2.981294036e-01
1.800000e+10 2.026623316e-01 3.082437897e-01 7.805821818e-01 -4.428344911e-01 7.805821818e-01 -4.428344911e-01 2.026623316e-01 3.082437897e-01
1.900000e+10 2.198730027e-01 3.174288838e-01 7.622744309e-01 -4.594000623e-01 7.622744309e-01 -4.594000623e-01 2.198730027e-01 3.174288838e-01
2.000000e+10 2.374186926e-01 3.256792524e-01 7.435751796e-01 -4.750497964e-01 7.435751796e-01 -4.750497964e-01 2.374186926e-01 3.256792524e-01
2.100000e+10 2.552465673e-01 3.329926358e-01 7.245357886e-01 -4.897812300e-01 7.245357886e-01 -4.897812300e-01 2.552465673e-01 3.329926358e-01
2.200000e+10 2.733043203e-01 3.393700122e-01 7.052072280e-01 -5.035952610e-01 7.052072280e-01 -5.035952610e-01 2.733043203e-01 3.393700122e-01
2.300000e+10 2.915405345e-01 3.448155661e-01 6.856396735e-01 -5.164960980e-01 6.856396735e-01 -5.164960980e-01 2.915405345e-01 3.448155661e-01
2.400000e+10 3.099050101e-01 3.493365849e-01 6.658821469e-01 -5.284911399e-01 6.658821469e-01 -5.284911399e-01 3.099050101e-01 3.493365849e-01
2.500000e+10 3.283490529e-01 3.529433012e-01 6.459822037e-01 -5.395908051e-01 6.459822037e-01 -5.395908051e-01 3.283490529e-01 3.529433012e-01
2.600000e+10 3.468257208e-01 3.556486967e-01 6.259856689e-01 -5.498083229e-01 6.259856689e-01 -5.498083229e-01 3.468257208e-01 3.556486967e-01
2.700000e+10 3.652900278e-01 3.574682796e-01 6.059364187e-01 -5.591595022e-01 6.059364187e-01 -5.591595022e-01 3.652900278e-01 3.574682796e-01
2.800000e+10 3.836991064e-01 3.584198451e-01 5.858762067e-01 -5.676624839e-01 5.858762067e-01 -5.676624839e-01 3.836991064e-01 3.584198451e-01
2.900000e+10 4.020123322e-01 3.585232286e-01 5.658445303e-01 -5.753374867e-01 5.658445303e-01 -5.753374867e-01 4.020123322e-01 3.585232286e-01
3.000000e+10 4.201914128e-01 3.578000550e-01 5.458785346e-01 -5.822065521e-01 5.458785346e-01 -5.822065521e-01 4.201914128e-01 3.578000550e-01
3.100000e+10 4.382004439e-01 3.562734927e-01 5.260129501e-01 -5.882932922e-01 5.260129501e-01 -5.882932922e-01 4.382004439e-01 3.562734927e-01
3.200000e+10 4.560059366e-01 3.539680127e-01 5.062800598e-01 -5.936226459e-01 5.062800598e-01 -5.936226459e-01 4.560059366e-01 3.539680127e-01
3.300000e+10 4.735768191e-01 3.509091588e-01 4.867096933e-01 -5.982206448e-01 4.867096933e-01 -5.982206448e-01 4.735768191e-01 3.509091588e-01
3.400000e+10 4.908844164e-01 3.471233286e-01 4.673292430e-01 -6.021141916e-01 4.673292430e-01 -6.021141916e-01 4.908844164e-01 3.471233286e-01
3.500000e+10 5.079024098e-01 3.426375686e-01 4.481637005e-01 -6.053308526e-01 4.481637005e-01 -6.053308526e-01 5.079024098e-01 3.426375686e-01
3.600000e+10 5.246067814e-01 3.374793839e-01 4.292357094e-01 -6.078986645e-01 4.292357094e-01 -6.078986645e-01 5.246067814e-01 3.374793839e-01
3.700000e+10 5.409757443e-01 3.316765623e-01 4.105656313e-01 -6.098459574e-01 4.105656313e-01 -6.098459574e-01 5.409757443e-01 3.316765623e-01
3.800000e+10 5.569896622e-01 3.252570150e-01 3.921716237e-01 -6.112011922e-01 3.921716237e-01 -6.112011922e-01 5.569896622e-01 3.252570150e-01
3.900000e+10 5.726309599e-01 3.182486311e-01 3.740697256e-01 -6.119928146e-01 3.740697256e-01 -6.119928146e-01 5.726309599e-01 3.182486311e-01
4.000000e+10 5.878840283e-01 3.106791484e-01 3.562739510e-01 -6.122491234e-01 3.562739510e-01 -6.122491234e-01 5.878840283e-01 3.106791484e-01
4.100000e+10 6.027351233e-01 3.025760381e-01 3.387963857e-01 -6.119981539e-01 3.387963857e-01 -6.119981539e-01 6.027351233e-01 3.025760381e-01
4.200000e+10 6.171722627e-01 2.939664034e-01 3.216472884e-01 -6.112675748e-01 3.216472884e-01 -6.112675748e-01 6.171722627e-01 2.939664034e-01
4.300000e+10 6.311851208e-01 2.848768917e-01 3.048351926e-01 -6.100845991e-01 3.048351926e-01 -6.100845991e-01 6.311851208e-01 2.848768917e-01
4.400000e+10 6.447649233e-01 2.753336188e-01 2.883670095e-01 -6.084759065e-01 2.883670095e-01 -6.084759065e-01 6.447649233e-01 2.753336188e-01
4.500000e+10 6.579043418e-01 2.653621051e-01 2.722481295e-01 -6.064675782e-01 2.722481295e-01 -6.064675782e-01 6.579043418e-01 2.653621051e-01
4.600000e+10 6.705973906e-01 2.549872218e-01 2.564825226e-01 -6.040850417e-01 2.564825226e-01 -6.040850417e-01 6.705973906e-01 2.549872218e-01
4.700000e+10 6.828393258e-01 2.442331481e-01 2.410728367e-01 -6.013530259e-01 2.410728367e-01 -6.013530259e-01 6.828393258e-01 2.442331481e-01
4.800000e+10 6.946265463e-01 2.331233363e-01 2.260204922e-01 -5.982955248e-01 2.260204922e-01 -5.982955248e-01 6.946265463e-01 2.331233363e-01
4.900000e+10 7.059564991e-01 2.216804859e-01 2.113257739e-01 -5.949357697e-01 2.113257739e-01 -5.949357697e-01 7.059564991e-01 2.216804859e-01
5.000000e+10 7.168275878e-01 2.099265241e-01 1.969879190e-01 -5.912962084e-01 1.969879190e-01 -5.912962084e-01 7.168275878e-01 2.099265241e-01
5.100000e+10 7.272390849e-01 1.978825944e-01 1.830052005e-01 -5.873984903e-01 1.830052005e-01 -5.873984903e-01 7.272390849e-01 1.978825944e-01
5.200000e+10 7.371910484e-01 1.855690492e-01 1.693750072e-01 -5.832634589e-01 1.693750072e-01 -5.832634589e-01 7.371910484e-01 1.855690492e-01
5.300000e+10 7.466842426e-01 1.730054497e-01 1.560939187e-01 -5.789111476e-01 1.560939187e-01 -5.789111476e-01 7.466842426e-01 1.730054497e-01
5.400000e+10 7.557200629e-01 1.602105681e-01 1.431577765e-01 -5.743607805e-01 1.431577765e-01 -5.743607805e-01 7.557200629e-01 1.602105681e-01
5.500000e+10 7.643004651e-01 1.472023960e-01 1.305617501e-01 -5.696307779e-01 1.305617501e-01 -5.696307779e-01 7.643004651e-01 1.472023960e-01
5.600000e+10 7.724278984e-01 1.339981548e-01 1.183003996e-01 -5.647387636e-01 1.183003996e-01 -5.647387636e-01 7.724278984e-01 1.339981548e-01
5.700000e+10 7.801052434e-01 1.206143093e-01 1.063677329e-01 -5.597015760e-01 1.063677329e-01 -5.597015760e-01 7.801052434e-01 1.206143093e-01
5.800000e+10 7.873357532e-01 1.070665846e-01 9.475725980e-02 -5.545352811e-01 9.475725980e-02 -5.545352811e-01 7.873357532e-01 1.070665846e-01
5.900000e+10 7.941229983e-01 9.336998420e-02 8.346204128e-02 -5.492551871e-01 8.346204128e-02 -5.492551871e-01 7.941229983e-01 9.336998420e-02
6.000000e+10 8.004708165e-01 7.953881038e-02 7.247473539e-02 -5.438758615e-01 7.247473539e-02 -5.438758615e-01 8.004708165e-01 7.953881038e-02
6.100000e+10 8.063832642e-01 6.558668601e-02 6.178763903e-02 -5.384111479e-01 6.178763903e-02 -5.384111479e-01 8.063832642e-01 6.558668601e-02
6.200000e+10 8.118645732e-01 5.152657750e-02 5.139272636e-02 -5.328741852e-01 5.139272636e-02 -5.328741852e-01 8.118645732e-01 5.152657750e-02
6.300000e+10 8.169191091e-01 3.737081864e-02 4.128168369e-02 -5.272774256e-01 4.128168369e-02 -5.272774256e-01 8.169191091e-01 3.737081864e-02
6.400000e+10 8.215513335e-01 2.313113528e-02 3.144594117e-02 -5.216326549e-01 3.144594117e-02 -5.216326549e-01 8.215513335e-01 2.313113528e-02
6.500000e+10 8.257657685e-01 8.818670521e-03 2.187670149e-02 -5.159510114e-01 2.187670149e-02 -5.159510114e-01 8.257657685e-01 8.818670521e-03
6.600000e+10 8.295669647e-01 -5.555989694e-03 1.256496556e-02 -5.102430051e-01 1.256496556e-02 -5.102430051e-01 8.295669647e-01 -5.555989694e-03
6.700000e+10 8.329594705e-01 -1.998279072e-02 3.501555569e-03 -5.045185373e-01 3.501555569e-03 -5.045185373e-01 8.329594705e-01 -1.998279072e-02
6.800000e+10 8.359478042e-01 -3.445218317e-02 -5.322864522e-03 -4.987869187e-01 -5.322864522e-03 -4.987869187e-01 8.359478042e-01 -3.445218317e-02
6.900000e+10 8.385364288e-01 -4.895509679e-02 -1.391777089e-02 -4.930568878e-01 -1.391777089e-02 -4.930568878e-01 8.385364288e-01 -4.895509679e-02
7.000000e+10 8.407297276e-01 -6.348291435e-02 -2.229276397e-02 -4.873366287e-01 -2.229276397e-02 -4.873366287e-01 8.407297276e-01 -6.348291435e-02
7.100000e+10 8.425319827e-01 -7.802744555e-02 -3.045755469e-02 -4.816337872e-01 -3.045755469e-02 -4.816337872e-01 8.425319827e-01 -7.802744555e-02
7.200000e+10 8.439473542e-01 -9.258090097e-02 -3.842195261e-02 -4.759554871e-01 -3.842195261e-02 -4.759554871e-01 8.439473542e-01 -9.258090097e-02
7.300000e+10 8.449798620e-01 -1.071358661e-01 -4.619585585e-02 -4.703083447e-01 -4.619585585e-02 -4.703083447e-01 8.449798620e-01 -1.071358661e-01
7.400000e+10 8.456333678e-01 -1.216852757e-01 -5.378924272e-02 -4.646984833e-01 -5.378924272e-02 -4.646984833e-01 8.456333678e-01 -1.216852757e-01
7.500000e+10 8.459115593e-01 -1.362223877e-01 -6.121216487e-02 -4.591315454e-01 -6.121216487e-02 -4.591315454e-01 8.459115593e-01 -1.362223877e-01
7.600000e+10 8.458179355e-01 -1.507407576e-01 -6.847474188e-02 -4.536127049e-01 -6.847474188e-02 -4.536127049e-01 8.458179355e-01 -1.507407576e-01
7.700000e+10 8.453557925e-01 -1.652342131e-01 -7.558715708e-02 -4.481466768e-01 -7.558715708e-02 -4.481466768e-01 8.453557925e-01 -1.652342131e-01
7.800000e+10 8.445282109e-01 -1.796968280e-01 -8.255965465e-02 -4.427377273e-01 -8.255965465e-02 -4.427377273e-01 8.445282109e-01 -1.796968280e-01
7.900000e+10 8.433380436e-01 -1.941228967e-01 -8.940253779e-02 -4.373896809e-01 -8.940253779e-02 -4.373896809e-01 8.433380436e-01 -1.941228967e-01
8.000000e+10 8.417879052e-01 -2.085069083e-01 -9.612616777e-02 -4.321059270e-01 -9.612616777e-02 -4.321059270e-01 8.417879052e-01 -2.085069083e-01
8.100000e+10 8.398801615e-01 -2.228435206e-01 -1.027409640e-01 -4.268894254e-01 -1.027409640e-01 -4.268894254e-01 8.398801615e-01 -2.228435206e-01
8.200000e+10 8.376169198e-01 -2.371275338e-01 -1.092574048e-01 -4.217427089e-01 -1.092574048e-01 -4.217427089e-01 8.376169198e-01 -2.371275338e-01
8.300000e+10 8.350000204e-01 -2.513538641e-01 -1.156860287e-01 -4.166678862e-01 -1.156860287e-01 -4.166678862e-01 8.350000204e-01 -2.513538641e-01
8.400000e+10 8.320310283e-01 -2.655175164e-01 -1.220374367e-01 -4.116666415e-01 -1.220374367e-01 -4.116666415e-01 8.320310283e-01 -2.655175164e-01
8.500000e+10 8.287112258e-01 -2.796135570e-01 -1.283222946e-01 -4.067402335e-01 -1.283222946e-01 -4.067402335e-01 8.287112258e-01 -2.796135570e-01
8.600000e+10 8.250416055e-01 -2.936370853e-01 -1.345513358e-01 -4.018894923e-01 -1.345513358e-01 -4.018894923e-01 8.250416055e-01 -2.936370853e-01
8.700000e+10 8.210228646e-01 -3.075832051e-01 -1.407353646e-01 -3.971148139e-01 -1.407353646e-01 -3.971148139e-01 8.210228646e-01 -3.075832051e-01
8.800000e+10 8.166553991e-01 -3.214469952e-01 -1.468852591e-01 -3.924161541e-01 -1.468852591e-01 -3.924161541e-01 8.166553991e-01 -3.214469952e-01
8.900000e+10 8.119392991e-01 -3.352234779e-01 -1.530119746e-01 -3.877930191e-01 -1.530119746e-01 -3.877930191e-01 8.119392991e-01 -3.352234779e-01
9.000000e+10 8.068743455e-01 -3.489075884e-01 -1.591265468e-01 -3.832444544e-01 -1.591265468e-01 -3.832444544e-01 8.068743455e-01 -3.489075884e-01
9.100000e+10 8.014600062e-01 -3.624941409e-01 -1.652400942e-01 -3.787690323e-01 -1.652400942e-01 -3.787690323e-01 8.014600062e-01 -3.624941409e-01
9.200000e+10 7.956954347e-01 -3.759777949e-01 -1.713638209e-01 -3.743648356e-01 -1.713638209e-01 -3.743648356e-01 7.956954347e-01 -3.759777949e-01
9.300000e+10 7.895794691e-01 -3.893530194e-01 -1.775090183e-01 -3.700294404e-01 -1.775090183e-01 -3.700294404e-01 7.895794691e-01 -3.893530194e-01
9.400000e+10 7.831106323e-01 -4.026140553e-01 -1.836870653e-01 -3.657598953e-01 -1.836870653e-01 -3.657598953e-01 7.831106323e-01 -4.026140553e-01
9.500000e+10 7.762871337e-01 -4.157548761e-01 -1.899094293e-01 -3.615526988e-01 -1.899094293e-01 -3.615526988e-01 7.762871337e-01 -4.157548761e-01
9.600000e+10 7.691068728e-01 -4.287691471e-01 -1.961876638e-01 -3.574037735e-01 -1.961876638e-01 -3.574037735e-01 7.691068728e-01 -4.287691471e-01
9.700000e+10 7.615674444e-01 -4.416501821e-01 -2.025334058e-01 -3.533084371e-01 -2.025334058e-01 -3.533084371e-01 7.615674444e-01 -4.416501821e-01
9.800000e+10 7.536661457e-01 -4.543908978e-01 -2.089583710e-01 -3.492613718e-01 -2.089583710e-01 -3.492613718e-01 7.536661457e-01 -4.543908978e-01
9.900000e+10 7.453999866e-01 -4.669837658e-01 -2.154743465e-01 -3.452565888e-01 -2.154743465e-01 -3.452565888e-01 7.453999866e-01 -4.669837658e-01
1.000000e+11 7.367657018e-01 -4.794207628e-01 -2.220931811e-01 -3.412873913e-01 -2.220931811e-01 -3.412873913e-01 7.367657018e-01 -4.794207628e-01
