! Inductor model fitted by inductor_fit.py from inductor_500p.s2p
#   Hz   S  RI   R   50
1.000000e+07 1.567349921e-02 2.194562414e-04 9.843264451e-01 -3.135014196e-04 9.843264451e-01 -3.135014196e-04 1.567349921e-02 2.194562414e-04
2.000000e+07 1.567368135e-02 4.389126518e-04 9.843260959e-01 -6.270021904e-04 9.843260959e-01 -6.270021904e-04 1.567368135e-02 4.389126518e-04
1.000000e+09 1.629416355e-02 2.196980899e-02 9.831818532e-01 -3.124651947e-02 9.831818532e-01 -3.124651947e-02 1.629416355e-02 2.196980899e-02
2.000000e+09 1.827895756e-02 4.401016254e-02 9.799377491e-01 -6.195787190e-02 9.799377491e-01 -6.195787190e-02 1.827895756e-02 4.401016254e-02
3.000000e+09 2.180842043e-02 6.596762274e-02 9.749614757e-01 -9.187926896e-02 9.749614757e-01 -9.187926896e-02 2.180842043e-02 6.596762274e-02
4.000000e+09 2.690856041e-02 8.757305466e-02 9.685434193e-01 -1.209666074e-01 9.685434193e-01 -1.209666074e-01 2.690856041e-02 8.757305466e-02
5.000000e+09 3.346937217e-02 1.086043574e-01 9.608649353e-01 -1.492333671e-01 9.608649353e-01 -1.492333671e-01 3.346937217e-02 1.086043574e-01
6.000000e+09 4.133551472e-02 1.289283651e-01 9.520476591e-01 -1.766932157e-01 9.520476591e-01 -1.766932157e-01 4.133551472e-02 1.289283651e-01
7.000000e+09 5.035997817e-02 1.484787535e-01 9.421841110e-01 -2.033546058e-01 9.421841110e-01 -2.033546058e-01 5.035997817e-02 1.484787535e-01
8.000000e+09 6.042120775e-02 1.672266459e-01 9.313487558e-01 -2.292227511e-01 9.313487558e-01 -2.292227511e-01 6.042120775e-02 1.672266459e-01
9.000000e+09 7.142304331e-02 1.851599323e-01 9.196028007e-01 -2.542995082e-01 9.196028007e-01 -2.542995082e-01 7.142304331e-02 1.851599323e-01
1.000000e+10 8.328898620e-02 2.022715169e-01 9.069980341e-01 -2.785824222e-01 9.069980341e-01 -2.785824222e-01 8.328898620e-02 2.022715169e-01
1.100000e+10 9.595576964e-02 2.185537139e-01 8.935804316e-01 -3.020643586e-01 8.935804316e-01 -3.020643586e-01 9.595576964e-02 2.185537139e-01
1.200000e+10 1.093680167e-01 2.339962967e-01 8.793931868e-01 -3.247340047e-01 8.793931868e-01 -3.247340047e-01 1.093680167e-01 2.339962967e-01
1.300000e+10 1.234743860e-01 2.485864749e-01 8.644789225e-01 -3.465769682e-01 8.644789225e-01 -3.465769682e-01 1.234743860e-01 2.485864749e-01
1.400000e+10 1.382250622e-01 2.623097425e-01 8.488810872e-01 -3.675771175e-01 8.488810872e-01 -3.675771175e-01 1.382250622e-01 2.623097425e-01
1.500000e+10 1.535702902e-01 2.751509971e-01 8.326446780e-01 -3.877179031e-01 8.326446780e-01 -3.877179031e-01 1.535702902e-01 2.751509971e-01
1.600000e+10 1.694596480e-01 2.870956300e-01 8.158164690e-01 -4.069835118e-01 8.158164690e-01 -4.069835118e-01 1.694596480e-01 2.870956300e-01
1.700000e+10 1.858418112e-01 2.981304500e-01 7.984449114e-01 -4.253597969e-01 7.984449114e-01 -4.253597969e-01 1.858418112e-01 2.981304500e-01
1.800000e+10 2.026646253e-01 3.082444008e-01 7.805798316e-01 -4.428349764e-01 7.805798316e-01 -4.428349764e-01 2.026646253e-01 3.082444008e-01
1.900000e+10 2.198753575e-01 3.174290766e-01 7.622720202e-01 -4.594001202e-01 7.622720202e-01 -4.594001202e-01 2.198753575e-01 3.174290766e-01
2.000000e+10 2.374210401e-01 3.256790565e-01 7.435727767e-01 -4.750494564e-01 7.435727767e-01 -4.750494564e-01 2.374210401e-01 3.256790565e-01
2.100000e+10 2.552488517e-01 3.329920898e-01 7.245334495e-01 -4.897805304e-01 7.245334495e-01 -4.897805304e-01 2.552488517e-01 3.329920898e-01
2.200000e+10 2.733064986e-01 3.393691606e-01 7.052049960e-01 -5.035942461e-01 7.052049960e-01 -5.035942461e-01 2.733064986e-01 3.393691606e-01
2.300000e+10 2.915425751e-01 3.448144564e-01 6.856375803e-01 -5.164948150e-01 6.856375803e-01 -5.164948150e-01 2.915425751e-01 3.448144564e-01
2.400000e+10 3.099068926e-01 3.493352657e-01 6.658802132e-01 -5.284896373e-01 6.658802132e-01 -5.284896373e-01 3.099068926e-01 3.493352657e-01
2.500000e+10 3.283507666e-01 3.529418203e-01 6.459804404e-01 -5.395891304e-01 6.459804404e-01 -5.395891304e-01 3.283507666e-01 3.529418203e-01
2.600000e+10 3.468272638e-01 3.556470999e-01 6.259840782e-01 -5.498065217e-01 6.259840782e-01 -5.498065217e-01 3.468272638e-01 3.556470999e-01
2.700000e+10 3.652914057e-01 3.574666095e-01 6.059349954e-01 -5.591576170e-01 6.059349954e-01 -5.591576170e-01 3.652914057e-01 3.574666095e-01
2.800000e+10 3.837003311e-01 3.584181406e-01 5.858749391e-01 -5.676605534e-01 5.858749391e-01 -5.676605534e-01 3.837003311e-01 3.584181406e-01
2.900000e+10 4.020134212e-01 3.585215242e-01 5.658434014e-01 -5.753355453e-01 5.658434014e-01 -5.753355453e-01 4.020134212e-01 3.585215242e-01
3.000000e+10 4.201923878e-01 3.577983806e-01 5.458775232e-01 -5.822046295e-01 5.458775232e-01 -5.822046295e-01 4.201923878e-01 3.577983806e-01
3.100000e+10 4.382013299e-01 3.562718732e-01 5.260120316e-01 -5.882914133e-01 5.260120316e-01 -5.882914133e-01 4.382013299e-01 3.562718732e-01
3.200000e+10 4.560067610e-01 3.539664683e-01 5.062792072e-01 -5.936208307e-01 5.062792072e-01 -5.936208307e-01 4.560067610e-01 3.539664683e-01
3.300000e+10 4.735776113e-01 3.509077047e-01 4.867088779e-01 -5.982189086e-01 4.867088779e-01 -5.982189086e-01 4.735776113e-01 3.509077047e-01
3.400000e+10 4.908852064e-01 3.471219754e-01 4.673284351e-01 -6.021125450e-01 4.673284351e-01 -6.021125450e-01 4.908852064e-01 3.471219754e-01
3.500000e+10 5.079032283e-01 3.426363224e-01 4.481628702e-01 -6.053293018e-01 4.481628702e-01 -6.053293018e-01 5.079032283e-01 3.426363224e-01
3.600000e+10 5.246076588e-01 3.374782464e-01 4.292348269e-01 -6.078972116e-01 4.292348269e-01 -6.078972116e-01 5.246076588e-01 3.374782464e-01
3.700000e+10 5.409767103e-01 3.316755315e-01 4.105646675e-01 -6.098446004e-01 4.105646675e-01 -6.098446004e-01 5.409767103e-01 3.316755315e-01
3.800000e+10 5.569907455e-01 3.252560850e-01 3.921705505e-01 -6.111999256e-01 3.921705505e-01 -6.111999256e-01 5.569907455e-01 3.252560850e-01
3.900000e+10 5.726321879e-01 3.182477929e-01 3.740685164e-01 -6.119916297e-01 3.740685164e-01 -6.119916297e-01 5.726321879e-01 3.182477929e-01
4.000000e+10 5.878854266e-01 3.106783898e-01 3.562725808e-01 -6.122480086e-01 3.562725808e-01 -6.122480086e-01 5.878854266e-01 3.106783898e-01
4.100000e+10 6.027367156e-01 3.025753443e-01 3.387948315e-01 -6.119970948e-01 3.387948315e-01 -6.119970948e-01 6.027367156e-01 3.025753443e-01
4.200000e+10 6.171740708e-01 2.939657573e-01 3.216455292e-01 -6.112665551e-01 3.216455292e-01 -6.112665551e-01 6.171740708e-01 2.939657573e-01
4.300000e+10 6.311871643e-01 2.848762741e-01 3.048332096e-01 -6.100836003e-01 3.048332096e-01 -6.100836003e-01 6.311871643e-01 2.848762741e-01
4.400000e+10 6.447672194e-01 2.753330088e-01 2.883647862e-01 -6.084749088e-01 2.883647862e-01 -6.084749088e-01 6.447672194e-01 2.753330088e-01
4.500000e+10 6.579069055e-01 2.653614804e-01 2.722456516e-01 -6.064665603e-01 2.722456516e-01 -6.064665603e-01 6.579069055e-01 2.653614804e-01
4.600000e+10 6.706002346e-01 2.549865591e-01 2.564797783e-01 -6.040839813e-01 2.564797783e-01 -6.040839813e-01 6.706002346e-01 2.549865591e-01
4.700000e+10 6.828424602e-01 2.442324230e-01 2.410698164e-01 -6.013518999e-01 2.410698164e-01 -6.013518999e-01 6.828424602e-01 2.442324230e-01
4.800000e+10 6.946299792e-01 2.331225239e-01 2.260171888e-01 -5.982943099e-01 2.260171888e-01 -5.982943099e-01 6.946299792e-01 2.331225239e-01
4.900000e+10 7.059602361e-01 2.216795608e-01 2.113221824e-01 -5.949344422e-01 2.113221824e-01 -5.949344422e-01 7.059602361e-01 2.216795608e-01
5.000000e+10 7.168316325e-01 2.099254609e-01 1.969840365e-01 -5.912947443e-01 1.969840365e-01 -5.912947443e-01 7.168316325e-01 2.099254609e-01
5.100000e+10 7.272434386e-01 1.978813673e-01 1.830010263e-01 -5.873968663e-01 1.830010263e-01 -5.873968663e-01 7.272434386e-01 1.978813673e-01
5.200000e+10 7.371957105e-01 1.855676329e-01 1.693705425e-01 -5.832616516e-01 1.693705425e-01 -5.832616516e-01 7.371957105e-01 1.855676329e-01
5.300000e+10 7.466892105e-01 1.730038189e-01 1.560891668e-01 -5.789091342e-01 1.560891668e-01 -5.789091342e-01 7.466892105e-01 1.730038189e-01
5.400000e+10 7.557253321e-01 1.602086982e-01 1.431527423e-01 -5.743585390e-01 1.431527423e-01 -5.743585390e-01 7.557253321e-01 1.602086982e-01
5.500000e+10 7.643060293e-01 1.472002628e-01 1.305564402e-01 -5.696282869e-01 1.305564402e-01 -5.696282869e-01 7.643060293e-01 1.472002628e-01
5.600000e+10 7.724337499e-01 1.339957346e-01 1.182948221e-01 -5.647360027e-01 1.182948221e-01 -5.647360027e-01 7.724337499e-01 1.339957346e-01
5.700000e+10 7.801113728e-01 1.206115794e-01 1.063618974e-01 -5.596985257e-01 1.063618974e-01 -5.596985257e-01 7.801113728e-01 1.206115794e-01
5.800000e+10 7.873421496e-01 1.070635229e-01 9.475117710e-02 -5.545319229e-01 9.475117710e-02 -5.545319229e-01 7.873421496e-01 1.070635229e-01
5.900000e+10 7.941296497e-01 9.336656941e-02 8.345572344e-02 -5.492515038e-01 8.345572344e-02 -5.492515038e-01 7.941296497e-01 9.336656941e-02
6.000000e+10 8.004777096e-01 7.953502223e-02 7.246819549e-02 -5.438718370e-01 7.246819549e-02 -5.438718370e-01 8.004777096e-01 7.953502223e-02
6.100000e+10 8.063903846e-01 6.558250512e-02 6.178089109e-02 -5.384067676e-01 6.178089109e-02 -5.384067676e-01 8.063903846e-01 6.558250512e-02
6.200000e+10 8.118719054e-01 5.152198542e-02 5.138578518e-02 -5.328694353e-01 5.138578518e-02 -5.328694353e-01 8.118719054e-01 5.152198542e-02
6.300000e+10 8.169266368e-01 3.736579788e-02 4.127456477e-02 -5.272722940e-01 4.127456477e-02 -5.272722940e-01 8.169266368e-01 3.736579788e-02
6.400000e+10 8.215590394e-01 2.312566933e-02 3.143866059e-02 -5.216271308e-01 3.143866059e-02 -5.216271308e-01 8.215590394e-01 2.312566933e-02
6.500000e+10 8.257736349e-01 8.812743844e-03 2.186927580e-02 -5.159450852e-01 2.186927580e-02 -5.159450852e-01 8.257736349e-01 8.812743844e-03
6.600000e+10 8.295749729e-01 -5.562391688e-03 1.255741164e-02 -5.102366688e-01 1.255741164e-02 -5.102366688e-01 8.295749729e-01 -5.562391688e-03
6.700000e+10 8.329676012e-01 -1.998968167e-02 3.493890560e-03 -5.045117839e-01 3.493890560e-03 -5.045117839e-01 8.329676012e-01 -1.998968167e-02
6.800000e+10 8.359560378e-01 -3.445957579e-02 -5.330623326e-03 -4.987797429e-01 -5.330623326e-03 -4.987797429e-01 8.359560378e-01 -3.445957579e-02
6.900000e+10 8.385447450e-01 -4.896300289e-02 -1.392560615e-02 -4.930492857e-01 -1.392560615e-02 -4.930492857e-01 8.385447450e-01 -4.896300289e-02
7.000000e+10 8.407381058e-01 -6.349134488e-02 -2.230065840e-02 -4.873285975e-01 -2.230065840e-02 -4.873285975e-01 8.407381058e-01 -6.349134488e-02
7.100000e+10 8.425404019e-01 -7.803641060e-02 -3.046549115e-02 -4.816253255e-01 -3.046549115e-02 -4.816253255e-01 8.425404019e-01 -7.803641060e-02
7.200000e+10 8.439557931e-01 -9.259040984e-02 -3.842991418e-02 -4.759465949e-01 -3.842991418e-02 -4.759465949e-01 8.439557931e-01 -9.259040984e-02
7.300000e+10 8.449882988e-01 -1.071459274e-01 -4.620382595e-02 -4.702990233e-01 -4.620382595e-02 -4.702990233e-01 8.449882988e-01 -1.071459274e-01
7.400000e+10 8.456417806e-01 -1.216958971e-01 -5.379720517e-02 -4.646887351e-01 -5.379720517e-02 -4.646887351e-01 8.456417806e-01 -1.216958971e-01
7.500000e+10 8.459199259e-01 -1.362335763e-01 -6.122010400e-02 -4.591213744e-01 -6.122010400e-02 -4.591213744e-01 8.459199259e-01 -1.362335763e-01
7.600000e+10 8.458262335e-01 -1.507525200e-01 -6.848264258e-02 -4.536021159e-01 -6.848264258e-02 -4.536021159e-01 8.458262335e-01 -1.507525200e-01
7.700000e+10 8.453639991e-01 -1.652465550e-01 -7.559500490e-02 -4.481356761e-01 -7.559500490e-02 -4.481356761e-01 8.453639991e-01 -1.652465550e-01
7.800000e+10 8.445363030e-01 -1.797097548e-01 -8.256743590e-02 -4.427263222e-01 -8.256743590e-02 -4.427263222e-01 8.445363030e-01 -1.797097548e-01
7.900000e+10 8.433459981e-01 -1.941364131e-01 -8.941023959e-02 -4.373778799e-01 -8.941023959e-02 -4.373778799e-01 8.433459981e-01 -1.941364131e-01
8.000000e+10 8.417956987e-01 -2.085210186e-01 -9.613377815e-02 -4.320937397e-01 -9.613377815e-02 -4.320937397e-01 8.417956987e-01 -2.085210186e-01
8.100000e+10 8.398877701e-01 -2.228582286e-01 -1.027484720e-01 -4.268768623e-01 -1.027484720e-01 -4.268768623e-01 8.398877701e-01 -2.228582286e-01
8.200000e+10 8.376243194e-01 -2.371428431e-01 -1.092648004e-01 -4.217297818e-01 -1.092648004e-01 -4.217297818e-01 8.376243194e-01 -2.371428431e-01
8.300000e+10 8.350071865e-01 -2.513697776e-01 -1.156933033e-01 -4.166546076e-01 -1.156933033e-01 -4.166546076e-01 8.350071865e-01 -2.513697776e-01
8.400000e+10 8.320379361e-01 -2.655340368e-01 -1.220445827e-01 -4.116530250e-01 -1.220445827e-01 -4.116530250e-01 8.320379361e-01 -2.655340368e-01
8.500000e+10 8.287178498e-01 -2.796306867e-01 -1.283293059e-01 -4.067262935e-01 -1.283293059e-01 -4.067262935e-01 8.287178498e-01 -2.796306867e-01
8.600000e+10 8.250479200e-01 -2.936548265e-01 -1.345582076e-01 -4.018752440e-01 -1.345582076e-01 -4.018752440e-01 8.250479200e-01 -2.936548265e-01
8.700000e+10 8.210288431e-01 -3.076015597e-01 -1.407420936e-01 -3.971002734e-01 -1.407420936e-01 -3.971002734e-01 8.210288431e-01 -3.076015597e-01
8.800000e+10 8.166610143e-01 -3.214659645e-01 -1.468918437e-01 -3.924013382e-01 -1.468918437e-01 -3.924013382e-01 8.166610143e-01 -3.214659645e-01
8.900000e+10 8.119445234e-01 -3.352430635e-01 -1.530184148e-01 -3.877779452e-01 -1.530184148e-01 -3.877779452e-01 8.119445234e-01 -3.352430635e-01
9.000000e+10 8.068791500e-01 -3.489277911e-01 -1.591328445e-01 -3.832291406e-01 -1.591328445e-01 -3.832291406e-01 8.068791500e-01 -3.489277911e-01
9.100000e+10 8.014643613e-01 -3.625149616e-01 -1.652462534e-01 -3.787534971e-01 -1.652462534e-01 -3.787534971e-01 8.014643613e-01 -3.625149616e-01
9.200000e+10 7.956993097e-01 -3.759992342e-01 -1.713698474e-01 -3.743490980e-01 -1.713698474e-01 -3.743490980e-01 7.956993097e-01 -3.759992342e-01
9.300000e+10 7.895828322e-01 -3.893750774e-01 -1.775149200e-01 -3.700135197e-01 -1.775149200e-01 -3.700135197e-01 7.895828322e-01 -3.893750774e-01
9.400000e+10 7.831134502e-01 -4.026367319e-01 -1.836928528e-01 -3.657438113e-01 -1.836928528e-01 -3.657438113e-01 7.831134502e-01 -4.026367319e-01
9.500000e+10 7.762893719e-01 -4.157781707e-01 -1.899151153e-01 -3.615364711e-01 -1.899151153e-01 -3.615364711e-01 7.762893719e-01 -4.157781707e-01
9.600000e+10 7.691084951e-01 -4.287930587e-01 -1.961932635e-01 -3.573874219e-01 -1.961932635e-01 -3.573874219e-01 7.691084951e-01 -4.287930587e-01
9.700000e+10 7.615684129e-01 -4.416747091e-01 -2.025389374e-01 -3.532919814e-01 -2.025389374e-01 -3.532919814e-01 7.615684129e-01 -4.416747091e-01
9.800000e+10 7.536664208e-01 -4.544160379e-01 -2.089638554e-01 -3.492448313e-01 -2.089638554e-01 -3.492448313e-01 7.536664208e-01 -4.544160379e-01
9.900000e+10 7.453995263e-01 -4.670095161e-01 -2.154798077e-01 -3.452399825e-01 -2.154798077e-01 -3.452399825e-01 7.453995263e-01 -4.670095161e-01
1.000000e+11 7.367644621e-01 -4.794471193e-01 -2.220986463e-01 -3.412707375e-01 -2.220986463e-01 -3.412707375e-01 7.367644621e-01 -4.794471193e-01
