! Inductor model fitted by inductor_fit.py from sample_inductor.s2p
#   Hz   S  RI   R   50
0.000000e+00 1.518856821e-02 -0.000000000e+00 9.848114318e-01 -0.000000000e+00 9.848114318e-01 -0.000000000e+00 1.518856821e-02 -0.000000000e+00
7.500000e+07 1.511528286e-02 6.232945502e-03 9.846077419e-01 -9.000646497e-03 9.846077419e-01 -9.000646497e-03 1.511528286e-02 6.232945502e-03
1.500000e+08 1.492187782e-02 1.256389921e-02 9.840232679e-01 -1.789625965e-02 9.840232679e-01 -1.789625965e-02 1.492187782e-02 1.256389921e-02
2.250000e+08 1.467592438e-02 1.906082186e-02 9.831260385e-01 -2.661182793e-02 9.831260385e-01 -2.661182793e-02 1.467592438e-02 1.906082186e-02
3.000000e+08 1.445961387e-02 2.574850610e-02 9.819990643e-01 -3.511549248e-02 9.819990643e-01 -3.511549248e-02 1.445961387e-02 2.574850610e-02
3.750000e+08 1.434555133e-02 3.261473169e-02 9.807161723e-01 -4.341244263e-02 9.807161723e-01 -4.341244263e-02 1.434555133e-02 3.261473169e-02
4.500000e+08 1.438474484e-02 3.962584020e-02 9.793300031e-01 -5.152941030e-02 9.793300031e-01 -5.152941030e-02 1.438474484e-02 3.962584020e-02
5.250000e+08 1.460592928e-02 4.674136665e-02 9.778713148e-01 -5.950010269e-02 9.778713148e-01 -5.950010269e-02 1.460592928e-02 4.674136665e-02
6.000000e+08 1.502063676e-02 5.392320459e-02 9.763540155e-01 -6.735608550e-02 9.763540155e-01 -6.735608550e-02 1.502063676e-02 5.392320459e-02
6.750000e+08 1.562932310e-02 6.113956531e-02 9.747812476e-01 -7.512285627e-02 9.747812476e-01 -7.512285627e-02 1.562932310e-02 6.113956531e-02
7.500000e+08 1.642632646e-02 6.836567135e-02 9.731503038e-01 -8.281917124e-02 9.731503038e-01 -8.281917124e-02 1.642632646e-02 6.836567135e-02
8.250000e+08 1.740318503e-02 7.558293201e-02 9.714559054e-01 -9.045788196e-02 9.714559054e-01 -9.045788196e-02 1.740318503e-02 7.558293201e-02
9.000000e+08 1.855059312e-02 8.277766347e-02 9.696921209e-01 -9.804722143e-02 9.696921209e-01 -9.804722143e-02 1.855059312e-02 8.277766347e-02
9.750000e+08 1.985943310e-02 8.993985537e-02 9.678533636e-01 -1.055920393e-01 9.678533636e-01 -1.055920393e-01 1.985943310e-02 8.993985537e-02
1.050000e+09 2.132124876e-02 9.706215964e-02 9.659348326e-01 -1.130948110e-01 9.659348326e-01 -1.130948110e-01 2.132124876e-02 9.706215964e-02
1.125000e+09 2.292840870e-02 1.041391242e-01 9.639326465e-01 -1.205563987e-01 9.639326465e-01 -1.205563987e-01 2.292840870e-02 1.041391242e-01
1.200000e+09 2.467411177e-02 1.111666368e-01 9.618438212e-01 -1.279765997e-01 9.618438212e-01 -1.279765997e-01 2.467411177e-02 1.111666368e-01
1.275000e+09 2.655232058e-02 1.181415302e-01 9.596661789e-01 -1.353545298e-01 9.596661789e-01 -1.353545298e-01 2.655232058e-02 1.181415302e-01
1.350000e+09 2.855766919e-02 1.250613064e-01 9.573982337e-01 -1.426888875e-01 9.573982337e-01 -1.426888875e-01 2.855766919e-02 1.250613064e-01
1.425000e+09 3.068536791e-02 1.319239439e-01 9.550390772e-01 -1.499781314e-01 9.550390772e-01 -1.499781314e-01 3.068536791e-02 1.319239439e-01
1.500000e+09 3.293111553e-02 1.387277643e-01 9.525882746e-01 -1.572205991e-01 9.525882746e-01 -1.572205991e-01 3.293111553e-02 1.387277643e-01
1.575000e+09 3.529102270e-02 1.454713385e-01 9.500457747e-01 -1.644145850e-01 9.500457747e-01 -1.644145850e-01 3.529102270e-02 1.454713385e-01
1.650000e+09 3.776154703e-02 1.521534207e-01 9.474118341e-01 -1.715583897e-01 9.474118341e-01 -1.715583897e-01 3.776154703e-02 1.521534207e-01
1.725000e+09 4.033943893e-02 1.587729018e-01 9.446869546e-01 -1.786503505e-01 9.446869546e-01 -1.786503505e-01 4.033943893e-02 1.587729018e-01
1.800000e+09 4.302169665e-02 1.653287760e-01 9.418718327e-01 -1.856888594e-01 9.418718327e-01 -1.856888594e-01 4.302169665e-02 1.653287760e-01
1.875000e+09 4.580552915e-02 1.718201162e-01 9.389673186e-01 -1.926723725e-01 9.389673186e-01 -1.926723725e-01 4.580552915e-02 1.718201162e-01
1.950000e+09 4.868832526e-02 1.782460564e-01 9.359743829e-01 -1.995994133e-01 9.359743829e-01 -1.995994133e-01 4.868832526e-02 1.782460564e-01
2.025000e+09 5.166762797e-02 1.846057783e-01 9.328940909e-01 -2.064685734e-01 9.328940909e-01 -2.064685734e-01 5.166762797e-02 1.846057783e-01
2.100000e+09 5.474111285e-02 1.908985009e-01 9.297275819e-01 -2.132785099e-01 9.297275819e-01 -2.132785099e-01 5.474111285e-02 1.908985009e-01
2.175000e+09 5.790656985e-02 1.971234736e-01 9.264760526e-01 -2.200279426e-01 9.264760526e-01 -2.200279426e-01 5.790656985e-02 1.971234736e-01
2.250000e+09 6.116188777e-02 2.032799699e-01 9.231407447e-01 -2.267156496e-01 9.231407447e-01 -2.267156496e-01 6.116188777e-02 2.032799699e-01
2.325000e+09 6.450504097e-02 2.093672834e-01 9.197229352e-01 -2.333404635e-01 9.197229352e-01 -2.333404635e-01 6.450504097e-02 2.093672834e-01
2.400000e+09 6.793407783e-02 2.153847244e-01 9.162239283e-01 -2.399012669e-01 9.162239283e-01 -2.399012669e-01 6.793407783e-02 2.153847244e-01
2.475000e+09 7.144711085e-02 2.213316172e-01 9.126450502e-01 -2.463969891e-01 9.126450502e-01 -2.463969891e-01 7.144711085e-02 2.213316172e-01
2.550000e+09 7.504230789e-02 2.272072990e-01 9.089876446e-01 -2.528266021e-01 9.089876446e-01 -2.528266021e-01 7.504230789e-02 2.272072990e-01
2.625000e+09 7.871788457e-02 2.330111182e-01 9.052530693e-01 -2.591891176e-01 9.052530693e-01 -2.591891176e-01 7.871788457e-02 2.330111182e-01
2.700000e+09 8.247209756e-02 2.387424337e-01 9.014426941e-01 -2.654835845e-01 9.014426941e-01 -2.654835845e-01 8.247209756e-02 2.387424337e-01
2.775000e+09 8.630323875e-02 2.444006150e-01 8.975578990e-01 -2.717090862e-01 8.975578990e-01 -2.717090862e-01 8.630323875e-02 2.444006150e-01
2.850000e+09 9.020963005e-02 2.499850419e-01 8.936000729e-01 -2.778647391e-01 8.936000729e-01 -2.778647391e-01 9.020963005e-02 2.499850419e-01
2.925000e+09 9.418961888e-02 2.554951046e-01 8.895706129e-01 -2.839496905e-01 8.895706129e-01 -2.839496905e-01 9.418961888e-02 2.554951046e-01
3.000000e+09 9.824157417e-02 2.609302045e-01 8.854709237e-01 -2.899631179e-01 8.854709237e-01 -2.899631179e-01 9.824157417e-02 2.609302045e-01
3.075000e+09 1.023638830e-01 2.662897544e-01 8.813024173e-01 -2.959042275e-01 8.813024173e-01 -2.959042275e-01 1.023638830e-01 2.662897544e-01
3.150000e+09 1.065549473e-01 2.715731796e-01 8.770665124e-01 -3.017722537e-01 8.770665124e-01 -3.017722537e-01 1.065549473e-01 2.715731796e-01
3.225000e+09 1.108131819e-01 2.767799185e-01 8.727646348e-01 -3.075664589e-01 8.727646348e-01 -3.075664589e-01 1.108131819e-01 2.767799185e-01
3.300000e+09 1.151370114e-01 2.819094236e-01 8.683982165e-01 -3.132861323e-01 8.683982165e-01 -3.132861323e-01 1.151370114e-01 2.819094236e-01
3.375000e+09 1.195248691e-01 2.869611624e-01 8.639686959e-01 -3.189305909e-01 8.639686959e-01 -3.189305909e-01 1.195248691e-01 2.869611624e-01
3.450000e+09 1.239751950e-01 2.919346185e-01 8.594775179e-01 -3.244991783e-01 8.594775179e-01 -3.244991783e-01 1.239751950e-01 2.919346185e-01
3.525000e+09 1.284864345e-01 2.968292922e-01 8.549261330e-01 -3.299912654e-01 8.549261330e-01 -3.299912654e-01 1.284864345e-01 2.968292922e-01
3.600000e+09 1.330570375e-01 3.016447019e-01 8.503159977e-01 -3.354062505e-01 8.503159977e-01 -3.354062505e-01 1.330570375e-01 3.016447019e-01
3.675000e+09 1.376854575e-01 3.063803849e-01 8.456485736e-01 -3.407435592e-01 8.456485736e-01 -3.407435592e-01 1.376854575e-01 3.063803849e-01
3.750000e+09 1.423701508e-01 3.110358980e-01 8.409253274e-01 -3.460026447e-01 8.409253274e-01 -3.460026447e-01 1.423701508e-01 3.110358980e-01
3.825000e+09 1.471095764e-01 3.156108189e-01 8.361477306e-01 -3.511829881e-01 8.361477306e-01 -3.511829881e-01 1.471095764e-01 3.156108189e-01
3.900000e+09 1.519021953e-01 3.201047466e-01 8.313172585e-01 -3.562840986e-01 8.313172585e-01 -3.562840986e-01 1.519021953e-01 3.201047466e-01
3.975000e+09 1.567464707e-01 3.245173024e-01 8.264353902e-01 -3.613055137e-01 8.264353902e-01 -3.613055137e-01 1.567464707e-01 3.245173024e-01
4.050000e+09 1.616408677e-01 3.288481304e-01 8.215036077e-01 -3.662467995e-01 8.215036077e-01 -3.662467995e-01 1.616408677e-01 3.288481304e-01
4.125000e+09 1.665838535e-01 3.330968985e-01 8.165233956e-01 -3.711075510e-01 8.165233956e-01 -3.711075510e-01 1.665838535e-01 3.330968985e-01
4.200000e+09 1.715738976e-01 3.372632987e-01 8.114962402e-01 -3.758873919e-01 8.114962402e-01 -3.758873919e-01 1.715738976e-01 3.372632987e-01
4.275000e+09 1.766094721e-01 3.413470475e-01 8.064236288e-01 -3.805859753e-01 8.064236288e-01 -3.805859753e-01 1.766094721e-01 3.413470475e-01
4.350000e+09 1.816890519e-01 3.453478867e-01 8.013070494e-01 -3.852029833e-01 8.013070494e-01 -3.852029833e-01 1.816890519e-01 3.453478867e-01
4.425000e+09 1.868111153e-01 3.492655839e-01 7.961479894e-01 -3.897381275e-01 7.961479894e-01 -3.897381275e-01 1.868111153e-01 3.492655839e-01
4.500000e+09 1.919741441e-01 3.530999321e-01 7.909479353e-01 -3.941911489e-01 7.909479353e-01 -3.941911489e-01 1.919741441e-01 3.530999321e-01
4.575000e+09 1.971766247e-01 3.568507508e-01 7.857083717e-01 -3.985618178e-01 7.857083717e-01 -3.985618178e-01 1.971766247e-01 3.568507508e-01
4.650000e+09 2.024170480e-01 3.605178859e-01 7.804307808e-01 -4.028499342e-01 7.804307808e-01 -4.028499342e-01 2.024170480e-01 3.605178859e-01
4.725000e+09 2.076939103e-01 3.641012097e-01 7.751166414e-01 -4.070553270e-01 7.751166414e-01 -4.070553270e-01 2.076939103e-01 3.641012097e-01
4.800000e+09 2.130057139e-01 3.676006212e-01 7.697674281e-01 -4.111778548e-01 7.697674281e-01 -4.111778548e-01 2.130057139e-01 3.676006212e-01
4.875000e+09 2.183509677e-01 3.710160461e-01 7.643846106e-01 -4.152174050e-01 7.643846106e-01 -4.152174050e-01 2.183509677e-01 3.710160461e-01
4.950000e+09 2.237281876e-01 3.743474367e-01 7.589696532e-01 -4.191738940e-01 7.589696532e-01 -4.191738940e-01 2.237281876e-01 3.743474367e-01
5.025000e+09 2.291358974e-01 3.775947719e-01 7.535240135e-01 -4.230472671e-01 7.535240135e-01 -4.230472671e-01 2.291358974e-01 3.775947719e-01
5.100000e+09 2.345726293e-01 3.807580573e-01 7.480491422e-01 -4.268374977e-01 7.480491422e-01 -4.268374977e-01 2.345726293e-01 3.807580573e-01
5.175000e+09 2.400369246e-01 3.838373247e-01 7.425464820e-01 -4.305445879e-01 7.425464820e-01 -4.305445879e-01 2.400369246e-01 3.838373247e-01
5.250000e+09 2.455273341e-01 3.868326322e-01 7.370174669e-01 -4.341685672e-01 7.370174669e-01 -4.341685672e-01 2.455273341e-01 3.868326322e-01
5.325000e+09 2.510424192e-01 3.897440636e-01 7.314635218e-01 -4.377094929e-01 7.314635218e-01 -4.377094929e-01 2.510424192e-01 3.897440636e-01
5.400000e+09 2.565807518e-01 3.925717286e-01 7.258860615e-01 -4.411674495e-01 7.258860615e-01 -4.411674495e-01 2.565807518e-01 3.925717286e-01
5.475000e+09 2.621409156e-01 3.953157622e-01 7.202864900e-01 -4.445425483e-01 7.202864900e-01 -4.445425483e-01 2.621409156e-01 3.953157622e-01
5.550000e+09 2.677215063e-01 3.979763244e-01 7.146662003e-01 -4.478349267e-01 7.146662003e-01 -4.478349267e-01 2.677215063e-01 3.979763244e-01
5.625000e+09 2.733211321e-01 4.005536000e-01 7.090265732e-01 -4.510447482e-01 7.090265732e-01 -4.510447482e-01 2.733211321e-01 4.005536000e-01
5.700000e+09 2.789384146e-01 4.030477979e-01 7.033689770e-01 -4.541722018e-01 7.033689770e-01 -4.541722018e-01 2.789384146e-01 4.030477979e-01
5.775000e+09 2.845719890e-01 4.054591510e-01 6.976947670e-01 -4.572175013e-01 6.976947670e-01 -4.572175013e-01 2.845719890e-01 4.054591510e-01
5.850000e+09 2.902205047e-01 4.077879155e-01 6.920052847e-01 -4.601808851e-01 6.920052847e-01 -4.601808851e-01 2.902205047e-01 4.077879155e-01
5.925000e+09 2.958826259e-01 4.100343706e-01 6.863018575e-01 -4.630626152e-01 6.863018575e-01 -4.630626152e-01 2.958826259e-01 4.100343706e-01
6.000000e+09 3.015570319e-01 4.121988180e-01 6.805857980e-01 -4.658629775e-01 6.805857980e-01 -4.658629775e-01 3.015570319e-01 4.121988180e-01
6.075000e+09 3.072424178e-01 4.142815814e-01 6.748584036e-01 -4.685822801e-01 6.748584036e-01 -4.685822801e-01 3.072424178e-01 4.142815814e-01
6.150000e+09 3.129374945e-01 4.162830059e-01 6.691209561e-01 -4.712208538e-01 6.691209561e-01 -4.712208538e-01 3.129374945e-01 4.162830059e-01
6.225000e+09 3.186409897e-01 4.182034573e-01 6.633747212e-01 -4.737790511e-01 6.633747212e-01 -4.737790511e-01 3.186409897e-01 4.182034573e-01
6.300000e+09 3.243516475e-01 4.200433222e-01 6.576209482e-01 -4.762572452e-01 6.576209482e-01 -4.762572452e-01 3.243516475e-01 4.200433222e-01
6.375000e+09 3.300682297e-01 4.218030068e-01 6.518608693e-01 -4.786558302e-01 6.518608693e-01 -4.786558302e-01 3.300682297e-01 4.218030068e-01
6.450000e+09 3.357895152e-01 4.234829365e-01 6.460956997e-01 -4.809752199e-01 6.460956997e-01 -4.809752199e-01 3.357895152e-01 4.234829365e-01
6.525000e+09 3.415143009e-01 4.250835556e-01 6.403266369e-01 -4.832158475e-01 6.403266369e-01 -4.832158475e-01 3.415143009e-01 4.250835556e-01
6.600000e+09 3.472414020e-01 4.266053262e-01 6.345548606e-01 -4.853781649e-01 6.345548606e-01 -4.853781649e-01 3.472414020e-01 4.266053262e-01
6.675000e+09 3.529696519e-01 4.280487283e-01 6.287815324e-01 -4.874626419e-01 6.287815324e-01 -4.874626419e-01 3.529696519e-01 4.280487283e-01
6.750000e+09 3.586979027e-01 4.294142585e-01 6.230077953e-01 -4.894697659e-01 6.230077953e-01 -4.894697659e-01 3.586979027e-01 4.294142585e-01
6.825000e+09 3.644250252e-01 4.307024301e-01 6.172347739e-01 -4.914000413e-01 6.172347739e-01 -4.914000413e-01 3.644250252e-01 4.307024301e-01
6.900000e+09 3.701499096e-01 4.319137720e-01 6.114635737e-01 -4.932539884e-01 6.114635737e-01 -4.932539884e-01 3.701499096e-01 4.319137720e-01
6.975000e+09 3.758714650e-01 4.330488282e-01 6.056952813e-01 -4.950321434e-01 6.056952813e-01 -4.950321434e-01 3.758714650e-01 4.330488282e-01
7.050000e+09 3.815886201e-01 4.341081574e-01 5.999309641e-01 -4.967350573e-01 5.999309641e-01 -4.967350573e-01 3.815886201e-01 4.341081574e-01
7.125000e+09 3.873003232e-01 4.350923324e-01 5.941716700e-01 -4.983632958e-01 5.941716700e-01 -4.983632958e-01 3.873003232e-01 4.350923324e-01
7.200000e+09 3.930055419e-01 4.360019393e-01 5.884184274e-01 -4.999174382e-01 5.884184274e-01 -4.999174382e-01 3.930055419e-01 4.360019393e-01
7.275000e+09 3.987032639e-01 4.368375770e-01 5.826722454e-01 -5.013980769e-01 5.826722454e-01 -5.013980769e-01 3.987032639e-01 4.368375770e-01
7.350000e+09 4.043924967e-01 4.375998568e-01 5.769341129e-01 -5.028058171e-01 5.769341129e-01 -5.028058171e-01 4.043924967e-01 4.375998568e-01
7.425000e+09 4.100722674e-01 4.382894017e-01 5.712049995e-01 -5.041412760e-01 5.712049995e-01 -5.041412760e-01 4.100722674e-01 4.382894017e-01
7.500000e+09 4.157416233e-01 4.389068456e-01 5.654858546e-01 -5.054050822e-01 5.654858546e-01 -5.054050822e-01 4.157416233e-01 4.389068456e-01
7.575000e+09 4.213996316e-01 4.394528333e-01 5.597776082e-01 -5.065978751e-01 5.597776082e-01 -5.065978751e-01 4.213996316e-01 4.394528333e-01
7.650000e+09 4.270453795e-01 4.399280193e-01 5.540811700e-01 -5.077203044e-01 5.540811700e-01 -5.077203044e-01 4.270453795e-01 4.399280193e-01
7.725000e+09 4.326779740e-01 4.403330677e-01 5.483974300e-01 -5.087730295e-01 5.483974300e-01 -5.087730295e-01 4.326779740e-01 4.403330677e-01
7.800000e+09 4.382965421e-01 4.406686516e-01 5.427272585e-01 -5.097567193e-01 5.427272585e-01 -5.097567193e-01 4.382965421e-01 4.406686516e-01
7.875000e+09 4.439002309e-01 4.409354523e-01 5.370715058e-01 -5.106720508e-01 5.370715058e-01 -5.106720508e-01 4.439002309e-01 4.409354523e-01
7.950000e+09 4.494882071e-01 4.411341591e-01 5.314310025e-01 -5.115197096e-01 5.314310025e-01 -5.115197096e-01 4.494882071e-01 4.411341591e-01
8.025000e+09 4.550596572e-01 4.412654687e-01 5.258065595e-01 -5.123003884e-01 5.258065595e-01 -5.123003884e-01 4.550596572e-01 4.412654687e-01
8.100000e+09 4.606137875e-01 4.413300844e-01 5.201989681e-01 -5.130147874e-01 5.201989681e-01 -5.130147874e-01 4.606137875e-01 4.413300844e-01
8.175000e+09 4.661498239e-01 4.413287160e-01 5.146090000e-01 -5.136636130e-01 5.146090000e-01 -5.136636130e-01 4.661498239e-01 4.413287160e-01
8.250000e+09 4.716670116e-01 4.412620792e-01 5.090374075e-01 -5.142475779e-01 5.090374075e-01 -5.142475779e-01 4.716670116e-01 4.412620792e-01
8.325000e+09 4.771646156e-01 4.411308951e-01 5.034849236e-01 -5.147674002e-01 5.034849236e-01 -5.147674002e-01 4.771646156e-01 4.411308951e-01
8.400000e+09 4.826419197e-01 4.409358895e-01 4.979522620e-01 -5.152238031e-01 4.979522620e-01 -5.152238031e-01 4.826419197e-01 4.409358895e-01
8.475000e+09 4.880982272e-01 4.406777929e-01 4.924401174e-01 -5.156175145e-01 4.924401174e-01 -5.156175145e-01 4.880982272e-01 4.406777929e-01
8.550000e+09 4.935328600e-01 4.403573396e-01 4.869491655e-01 -5.159492664e-01 4.869491655e-01 -5.159492664e-01 4.935328600e-01 4.403573396e-01
8.625000e+09 4.989451593e-01 4.399752676e-01 4.814800634e-01 -5.162197947e-01 4.814800634e-01 -5.162197947e-01 4.989451593e-01 4.399752676e-01
8.700000e+09 5.043344845e-01 4.395323180e-01 4.760334494e-01 -5.164298383e-01 4.760334494e-01 -5.164298383e-01 5.043344845e-01 4.395323180e-01
8.775000e+09 5.097002136e-01 4.390292347e-01 4.706099433e-01 -5.165801392e-01 4.706099433e-01 -5.165801392e-01 5.097002136e-01 4.390292347e-01
8.850000e+09 5.150417432e-01 4.384667637e-01 4.652101470e-01 -5.166714418e-01 4.652101470e-01 -5.166714418e-01 5.150417432e-01 4.384667637e-01
8.925000e+09 5.203584876e-01 4.378456532e-01 4.598346439e-01 -5.167044925e-01 4.598346439e-01 -5.167044925e-01 5.203584876e-01 4.378456532e-01
9.000000e+09 5.256498793e-01 4.371666527e-01 4.544839998e-01 -5.166800394e-01 4.544839998e-01 -5.166800394e-01 5.256498793e-01 4.371666527e-01
9.075000e+09 5.309153683e-01 4.364305131e-01 4.491587627e-01 -5.165988321e-01 4.491587627e-01 -5.165988321e-01 5.309153683e-01 4.364305131e-01
9.150000e+09 5.361544223e-01 4.356379860e-01 4.438594631e-01 -5.164616207e-01 4.438594631e-01 -5.164616207e-01 5.361544223e-01 4.356379860e-01
9.225000e+09 5.413665262e-01 4.347898234e-01 4.385866142e-01 -5.162691562e-01 4.385866142e-01 -5.162691562e-01 5.413665262e-01 4.347898234e-01
9.300000e+09 5.465511820e-01 4.338867775e-01 4.333407125e-01 -5.160221898e-01 4.333407125e-01 -5.160221898e-01 5.465511820e-01 4.338867775e-01
9.375000e+09 5.517079084e-01 4.329296003e-01 4.281222371e-01 -5.157214726e-01 4.281222371e-01 -5.157214726e-01 5.517079084e-01 4.329296003e-01
9.450000e+09 5.568362410e-01 4.319190432e-01 4.229316510e-01 -5.153677550e-01 4.229316510e-01 -5.153677550e-01 5.568362410e-01 4.319190432e-01
9.525000e+09 5.619357316e-01 4.308558567e-01 4.177694005e-01 -5.149617871e-01 4.177694005e-01 -5.149617871e-01 5.619357316e-01 4.308558567e-01
9.600000e+09 5.670059482e-01 4.297407904e-01 4.126359159e-01 -5.145043176e-01 4.126359159e-01 -5.145043176e-01 5.670059482e-01 4.297407904e-01
9.675000e+09 5.720464747e-01 4.285745923e-01 4.075316116e-01 -5.139960940e-01 4.075316116e-01 -5.139960940e-01 5.720464747e-01 4.285745923e-01
9.750000e+09 5.770569108e-01 4.273580087e-01 4.024568864e-01 -5.134378622e-01 4.024568864e-01 -5.134378622e-01 5.770569108e-01 4.273580087e-01
9.825000e+09 5.820368714e-01 4.260917840e-01 3.974121235e-01 -5.128303662e-01 3.974121235e-01 -5.128303662e-01 5.820368714e-01 4.260917840e-01
9.900000e+09 5.869859869e-01 4.247766602e-01 3.923976910e-01 -5.121743478e-01 3.923976910e-01 -5.121743478e-01 5.869859869e-01 4.247766602e-01
9.975000e+09 5.919039024e-01 4.234133771e-01 3.874139422e-01 -5.114705465e-01 3.874139422e-01 -5.114705465e-01 5.919039024e-01 4.234133771e-01
1.005000e+10 5.967902777e-01 4.220026715e-01 3.824612156e-01 -5.107196991e-01 3.824612156e-01 -5.107196991e-01 5.967902777e-01 4.220026715e-01
1.012500e+10 6.016447871e-01 4.205452775e-01 3.775398351e-01 -5.099225396e-01 3.775398351e-01 -5.099225396e-01 6.016447871e-01 4.205452775e-01
1.020000e+10 6.064671193e-01 4.190419258e-01 3.726501108e-01 -5.090797987e-01 3.726501108e-01 -5.090797987e-01 6.064671193e-01 4.190419258e-01
1.027500e+10 6.112569766e-01 4.174933440e-01 3.677923385e-01 -5.081922040e-01 3.677923385e-01 -5.081922040e-01 6.112569766e-01 4.174933440e-01
1.035000e+10 6.160140752e-01 4.159002558e-01 3.629668006e-01 -5.072604796e-01 3.629668006e-01 -5.072604796e-01 6.160140752e-01 4.159002558e-01
1.042500e+10 6.207381446e-01 4.142633814e-01 3.581737658e-01 -5.062853457e-01 3.581737658e-01 -5.062853457e-01 6.207381446e-01 4.142633814e-01
1.050000e+10 6.254289278e-01 4.125834368e-01 3.534134899e-01 -5.052675188e-01 3.534134899e-01 -5.052675188e-01 6.254289278e-01 4.125834368e-01
1.057500e+10 6.300861802e-01 4.108611342e-01 3.486862155e-01 -5.042077113e-01 3.486862155e-01 -5.042077113e-01 6.300861802e-01 4.108611342e-01
1.065000e+10 6.347096704e-01 4.090971812e-01 3.439921727e-01 -5.031066313e-01 3.439921727e-01 -5.031066313e-01 6.347096704e-01 4.090971812e-01
1.072500e+10 6.392991792e-01 4.072922810e-01 3.393315792e-01 -5.019649824e-01 3.393315792e-01 -5.019649824e-01 6.392991792e-01 4.072922810e-01
1.080000e+10 6.438544996e-01 4.054471324e-01 3.347046403e-01 -5.007834639e-01 3.347046403e-01 -5.007834639e-01 6.438544996e-01 4.054471324e-01
1.087500e+10 6.483754365e-01 4.035624292e-01 3.301115495e-01 -4.995627703e-01 3.301115495e-01 -4.995627703e-01 6.483754365e-01 4.035624292e-01
1.095000e+10 6.528618067e-01 4.016388603e-01 3.255524887e-01 -4.983035911e-01 3.255524887e-01 -4.983035911e-01 6.528618067e-01 4.016388603e-01
1.102500e+10 6.573134381e-01 3.996771098e-01 3.210276283e-01 -4.970066110e-01 3.210276283e-01 -4.970066110e-01 6.573134381e-01 3.996771098e-01
1.110000e+10 6.617301700e-01 3.976778566e-01 3.165371273e-01 -4.956725097e-01 3.165371273e-01 -4.956725097e-01 6.617301700e-01 3.976778566e-01
1.117500e+10 6.661118528e-01 3.956417742e-01 3.120811341e-01 -4.943019615e-01 3.120811341e-01 -4.943019615e-01 6.661118528e-01 3.956417742e-01
1.125000e+10 6.704583473e-01 3.935695309e-01 3.076597861e-01 -4.928956355e-01 3.076597861e-01 -4.928956355e-01 6.704583473e-01 3.935695309e-01
1.132500e+10 6.747695250e-01 3.914617893e-01 3.032732104e-01 -4.914541952e-01 3.032732104e-01 -4.914541952e-01 6.747695250e-01 3.914617893e-01
1.140000e+10 6.790452676e-01 3.893192069e-01 2.989215237e-01 -4.899782989e-01 2.989215237e-01 -4.899782989e-01 6.790452676e-01 3.893192069e-01
1.147500e+10 6.832854668e-01 3.871424350e-01 2.946048328e-01 -4.884685991e-01 2.946048328e-01 -4.884685991e-01 6.832854668e-01 3.871424350e-01
1.155000e+10 6.874900240e-01 3.849321196e-01 2.903232347e-01 -4.869257427e-01 2.903232347e-01 -4.869257427e-01 6.874900240e-01 3.849321196e-01
1.162500e+10 6.916588502e-01 3.826889006e-01 2.860768169e-01 -4.853503706e-01 2.860768169e-01 -4.853503706e-01 6.916588502e-01 3.826889006e-01
1.170000e+10 6.957918657e-01 3.804134123e-01 2.818656575e-01 -4.837431183e-01 2.818656575e-01 -4.837431183e-01 6.957918657e-01 3.804134123e-01
1.177500e+10 6.998890001e-01 3.781062829e-01 2.776898254e-01 -4.821046149e-01 2.776898254e-01 -4.821046149e-01 6.998890001e-01 3.781062829e-01
1.185000e+10 7.039501914e-01 3.757681347e-01 2.735493810e-01 -4.804354841e-01 2.735493810e-01 -4.804354841e-01 7.039501914e-01 3.757681347e-01
1.192500e+10 7.079753868e-01 3.733995837e-01 2.694443757e-01 -4.787363430e-01 2.694443757e-01 -4.787363430e-01 7.079753868e-01 3.733995837e-01
1.200000e+10 7.119645415e-01 3.710012401e-01 2.653748525e-01 -4.770078031e-01 2.653748525e-01 -4.770078031e-01 7.119645415e-01 3.710012401e-01
1.207500e+10 7.159176192e-01 3.685737077e-01 2.613408463e-01 -4.752504695e-01 2.613408463e-01 -4.752504695e-01 7.159176192e-01 3.685737077e-01
1.215000e+10 7.198345914e-01 3.661175845e-01 2.573423840e-01 -4.734649413e-01 2.573423840e-01 -4.734649413e-01 7.198345914e-01 3.661175845e-01
1.222500e+10 7.237154375e-01 3.636334618e-01 2.533794845e-01 -4.716518114e-01 2.533794845e-01 -4.716518114e-01 7.237154375e-01 3.636334618e-01
1.230000e+10 7.275601446e-01 3.611219250e-01 2.494521593e-01 -4.698116665e-01 2.494521593e-01 -4.698116665e-01 7.275601446e-01 3.611219250e-01
1.237500e+10 7.313687071e-01 3.585835531e-01 2.455604125e-01 -4.679450869e-01 2.455604125e-01 -4.679450869e-01 7.313687071e-01 3.585835531e-01
1.245000e+10 7.351411265e-01 3.560189187e-01 2.417042408e-01 -4.660526468e-01 2.417042408e-01 -4.660526468e-01 7.351411265e-01 3.560189187e-01
1.252500e+10 7.388774114e-01 3.534285883e-01 2.378836340e-01 -4.641349141e-01 2.378836340e-01 -4.641349141e-01 7.388774114e-01 3.534285883e-01
1.260000e+10 7.425775773e-01 3.508131219e-01 2.340985752e-01 -4.621924504e-01 2.340985752e-01 -4.621924504e-01 7.425775773e-01 3.508131219e-01
1.267500e+10 7.462416461e-01 3.481730732e-01 2.303490407e-01 -4.602258108e-01 2.303490407e-01 -4.602258108e-01 7.462416461e-01 3.481730732e-01
1.275000e+10 7.498696462e-01 3.455089897e-01 2.266350005e-01 -4.582355444e-01 2.266350005e-01 -4.582355444e-01 7.498696462e-01 3.455089897e-01
1.282500e+10 7.534616124e-01 3.428214122e-01 2.229564183e-01 -4.562221937e-01 2.229564183e-01 -4.562221937e-01 7.534616124e-01 3.428214122e-01
1.290000e+10 7.570175855e-01 3.401108756e-01 2.193132517e-01 -4.541862950e-01 2.193132517e-01 -4.541862950e-01 7.570175855e-01 3.401108756e-01
1.297500e+10 7.605376120e-01 3.373779080e-01 2.157054524e-01 -4.521283783e-01 2.157054524e-01 -4.521283783e-01 7.605376120e-01 3.373779080e-01
1.305000e+10 7.640217443e-01 3.346230316e-01 2.121329665e-01 -4.500489672e-01 2.121329665e-01 -4.500489672e-01 7.640217443e-01 3.346230316e-01
1.312500e+10 7.674700403e-01 3.318467618e-01 2.085957343e-01 -4.479485792e-01 2.085957343e-01 -4.479485792e-01 7.674700403e-01 3.318467618e-01
1.320000e+10 7.708825634e-01 3.290496080e-01 2.050936910e-01 -4.458277251e-01 2.050936910e-01 -4.458277251e-01 7.708825634e-01 3.290496080e-01
1.327500e+10 7.742593819e-01 3.262320733e-01 2.016267664e-01 -4.436869099e-01 2.016267664e-01 -4.436869099e-01 7.742593819e-01 3.262320733e-01
1.335000e+10 7.776005694e-01 3.233946543e-01 1.981948853e-01 -4.415266319e-01 1.981948853e-01 -4.415266319e-01 7.776005694e-01 3.233946543e-01
1.342500e+10 7.809062043e-01 3.205378415e-01 1.947979676e-01 -4.393473834e-01 1.947979676e-01 -4.393473834e-01 7.809062043e-01 3.205378415e-01
1.350000e+10 7.841763698e-01 3.176621191e-01 1.914359285e-01 -4.371496505e-01 1.914359285e-01 -4.371496505e-01 7.841763698e-01 3.176621191e-01
1.357500e+10 7.874111537e-01 3.147679649e-01 1.881086785e-01 -4.349339130e-01 1.881086785e-01 -4.349339130e-01 7.874111537e-01 3.147679649e-01
1.365000e+10 7.906106480e-01 3.118558508e-01 1.848161237e-01 -4.327006444e-01 1.848161237e-01 -4.327006444e-01 7.906106480e-01 3.118558508e-01
1.372500e+10 7.937749493e-01 3.089262424e-01 1.815581660e-01 -4.304503123e-01 1.815581660e-01 -4.304503123e-01 7.937749493e-01 3.089262424e-01
1.380000e+10 7.969041581e-01 3.059795990e-01 1.783347031e-01 -4.281833779e-01 1.783347031e-01 -4.281833779e-01 7.969041581e-01 3.059795990e-01
1.387500e+10 7.999983791e-01 3.030163740e-01 1.751456286e-01 -4.259002967e-01 1.751456286e-01 -4.259002967e-01 7.999983791e-01 3.030163740e-01
1.395000e+10 8.030577206e-01 3.000370146e-01 1.719908323e-01 -4.236015178e-01 1.719908323e-01 -4.236015178e-01 8.030577206e-01 3.000370146e-01
1.402500e+10 8.060822950e-01 2.970419621e-01 1.688702003e-01 -4.212874843e-01 1.688702003e-01 -4.212874843e-01 8.060822950e-01 2.970419621e-01
1.410000e+10 8.090722178e-01 2.940316514e-01 1.657836150e-01 -4.189586335e-01 1.657836150e-01 -4.189586335e-01 8.090722178e-01 2.940316514e-01
1.417500e+10 8.120276085e-01 2.910065120e-01 1.627309554e-01 -4.166153965e-01 1.627309554e-01 -4.166153965e-01 8.120276085e-01 2.910065120e-01
1.425000e+10 8.149485896e-01 2.879669669e-01 1.597120972e-01 -4.142581988e-01 1.597120972e-01 -4.142581988e-01 8.149485896e-01 2.879669669e-01
1.432500e+10 8.178352869e-01 2.849134337e-01 1.567269127e-01 -4.118874598e-01 1.567269127e-01 -4.118874598e-01 8.178352869e-01 2.849134337e-01
1.440000e+10 8.206878294e-01 2.818463238e-01 1.537752712e-01 -4.095035930e-01 1.537752712e-01 -4.095035930e-01 8.206878294e-01 2.818463238e-01
1.447500e+10 8.235063488e-01 2.787660429e-01 1.508570391e-01 -4.071070063e-01 1.508570391e-01 -4.071070063e-01 8.235063488e-01 2.787660429e-01
1.455000e+10 8.262909799e-01 2.756729909e-01 1.479720796e-01 -4.046981018e-01 1.479720796e-01 -4.046981018e-01 8.262909799e-01 2.756729909e-01
1.462500e+10 8.290418603e-01 2.725675621e-01 1.451202536e-01 -4.022772759e-01 1.451202536e-01 -4.022772759e-01 8.290418603e-01 2.725675621e-01
1.470000e+10 8.317591301e-01 2.694501450e-01 1.423014190e-01 -3.998449192e-01 1.423014190e-01 -3.998449192e-01 8.317591301e-01 2.694501450e-01
1.477500e+10 8.344429319e-01 2.663211225e-01 1.395154313e-01 -3.974014170e-01 1.395154313e-01 -3.974014170e-01 8.344429319e-01 2.663211225e-01
1.485000e+10 8.370934109e-01 2.631808719e-01 1.367621434e-01 -3.949471486e-01 1.367621434e-01 -3.949471486e-01 8.370934109e-01 2.631808719e-01
1.492500e+10 8.397107145e-01 2.600297651e-01 1.340414062e-01 -3.924824883e-01 1.340414062e-01 -3.924824883e-01 8.397107145e-01 2.600297651e-01
1.500000e+10 8.422949923e-01 2.568681682e-01 1.313530680e-01 -3.900078045e-01 1.313530680e-01 -3.900078045e-01 8.422949923e-01 2.568681682e-01
1.507500e+10 8.448463961e-01 2.536964423e-01 1.286969751e-01 -3.875234603e-01 1.286969751e-01 -3.875234603e-01 8.448463961e-01 2.536964423e-01
1.515000e+10 8.473650798e-01 2.505149426e-01 1.260729718e-01 -3.850298137e-01 1.260729718e-01 -3.850298137e-01 8.473650798e-01 2.505149426e-01
1.522500e+10 8.498511990e-01 2.473240195e-01 1.234809005e-01 -3.825272169e-01 1.234809005e-01 -3.825272169e-01 8.498511990e-01 2.473240195e-01
1.530000e+10 8.523049114e-01 2.441240177e-01 1.209206015e-01 -3.800160172e-01 1.209206015e-01 -3.800160172e-01 8.523049114e-01 2.441240177e-01
1.537500e+10 8.547263763e-01 2.409152768e-01 1.183919136e-01 -3.774965565e-01 1.183919136e-01 -3.774965565e-01 8.547263763e-01 2.409152768e-01
1.545000e+10 8.571157548e-01 2.376981313e-01 1.158946737e-01 -3.749691717e-01 1.158946737e-01 -3.749691717e-01 8.571157548e-01 2.376981313e-01
1.552500e+10 8.594732096e-01 2.344729105e-01 1.134287172e-01 -3.724341945e-01 1.134287172e-01 -3.724341945e-01 8.594732096e-01 2.344729105e-01
1.560000e+10 8.617989047e-01 2.312399385e-01 1.109938780e-01 -3.698919515e-01 1.109938780e-01 -3.698919515e-01 8.617989047e-01 2.312399385e-01
1.567500e+10 8.640930057e-01 2.279995346e-01 1.085899885e-01 -3.673427642e-01 1.085899885e-01 -3.673427642e-01 8.640930057e-01 2.279995346e-01
1.575000e+10 8.663556796e-01 2.247520129e-01 1.062168797e-01 -3.647869494e-01 1.062168797e-01 -3.647869494e-01 8.663556796e-01 2.247520129e-01
1.582500e+10 8.685870945e-01 2.214976828e-01 1.038743814e-01 -3.622248188e-01 1.038743814e-01 -3.622248188e-01 8.685870945e-01 2.214976828e-01
1.590000e+10 8.707874199e-01 2.182368487e-01 1.015623221e-01 -3.596566793e-01 1.015623221e-01 -3.596566793e-01 8.707874199e-01 2.182368487e-01
1.597500e+10 8.729568263e-01 2.149698102e-01 9.928052926e-02 -3.570828330e-01 9.928052926e-02 -3.570828330e-01 8.729568263e-01 2.149698102e-01
1.605000e+10 8.750954852e-01 2.116968621e-01 9.702882918e-02 -3.545035773e-01 9.702882918e-02 -3.545035773e-01 8.750954852e-01 2.116968621e-01
1.612500e+10 8.772035693e-01 2.084182945e-01 9.480704717e-02 -3.519192048e-01 9.480704717e-02 -3.519192048e-01 8.772035693e-01 2.084182945e-01
1.620000e+10 8.792812522e-01 2.051343929e-01 9.261500758e-02 -3.493300035e-01 9.261500758e-02 -3.493300035e-01 8.792812522e-01 2.051343929e-01
1.627500e+10 8.813287081e-01 2.018454381e-01 9.045253391e-02 -3.467362570e-01 9.045253391e-02 -3.467362570e-01 8.813287081e-01 2.018454381e-01
1.635000e+10 8.833461123e-01 1.985517066e-01 8.831944883e-02 -3.441382440e-01 8.831944883e-02 -3.441382440e-01 8.833461123e-01 1.985517066e-01
1.642500e+10 8.853336407e-01 1.952534700e-01 8.621557425e-02 -3.415362390e-01 8.621557425e-02 -3.415362390e-01 8.853336407e-01 1.952534700e-01
1.650000e+10 8.872914699e-01 1.919509957e-01 8.414073140e-02 -3.389305120e-01 8.414073140e-02 -3.389305120e-01 8.872914699e-01 1.919509957e-01
1.657500e+10 8.892197772e-01 1.886445468e-01 8.209474084e-02 -3.363213287e-01 8.209474084e-02 -3.363213287e-01 8.892197772e-01 1.886445468e-01
1.665000e+10 8.911187404e-01 1.853343818e-01 8.007742257e-02 -3.337089502e-01 8.007742257e-02 -3.337089502e-01 8.911187404e-01 1.853343818e-01
1.672500e+10 8.929885377e-01 1.820207551e-01 7.808859604e-02 -3.310936337e-01 7.808859604e-02 -3.310936337e-01 8.929885377e-01 1.820207551e-01
1.680000e+10 8.948293481e-01 1.787039168e-01 7.612808025e-02 -3.284756318e-01 7.612808025e-02 -3.284756318e-01 8.948293481e-01 1.787039168e-01
1.687500e+10 8.966413506e-01 1.753841128e-01 7.419569373e-02 -3.258551933e-01 7.419569373e-02 -3.258551933e-01 8.966413506e-01 1.753841128e-01
1.695000e+10 8.984247249e-01 1.720615849e-01 7.229125466e-02 -3.232325627e-01 7.229125466e-02 -3.232325627e-01 8.984247249e-01 1.720615849e-01
1.702500e+10 9.001796508e-01 1.687365708e-01 7.041458088e-02 -3.206079804e-01 7.041458088e-02 -3.206079804e-01 9.001796508e-01 1.687365708e-01
1.710000e+10 9.019063084e-01 1.654093041e-01 6.856548995e-02 -3.179816828e-01 6.856548995e-02 -3.179816828e-01 9.019063084e-01 1.654093041e-01
1.717500e+10 9.036048783e-01 1.620800147e-01 6.674379917e-02 -3.153539024e-01 6.674379917e-02 -3.153539024e-01 9.036048783e-01 1.620800147e-01
1.725000e+10 9.052755408e-01 1.587489281e-01 6.494932568e-02 -3.127248679e-01 6.494932568e-02 -3.127248679e-01 9.052755408e-01 1.587489281e-01
1.732500e+10 9.069184768e-01 1.554162664e-01 6.318188643e-02 -3.100948038e-01 6.318188643e-02 -3.100948038e-01 9.069184768e-01 1.554162664e-01
1.740000e+10 9.085338670e-01 1.520822475e-01 6.144129828e-02 -3.074639311e-01 6.144129828e-02 -3.074639311e-01 9.085338670e-01 1.520822475e-01
1.747500e+10 9.101218922e-01 1.487470858e-01 5.972737800e-02 -3.048324668e-01 5.972737800e-02 -3.048324668e-01 9.101218922e-01 1.487470858e-01
1.755000e+10 9.116827333e-01 1.454109918e-01 5.803994233e-02 -3.022006245e-01 5.803994233e-02 -3.022006245e-01 9.116827333e-01 1.454109918e-01
1.762500e+10 9.132165711e-01 1.420741724e-01 5.637880803e-02 -2.995686139e-01 5.637880803e-02 -2.995686139e-01 9.132165711e-01 1.420741724e-01
1.770000e+10 9.147235865e-01 1.387368307e-01 5.474379186e-02 -2.969366410e-01 5.474379186e-02 -2.969366410e-01 9.147235865e-01 1.387368307e-01
1.777500e+10 9.162039601e-01 1.353991665e-01 5.313471069e-02 -2.943049085e-01 5.313471069e-02 -2.943049085e-01 9.162039601e-01 1.353991665e-01
1.785000e+10 9.176578726e-01 1.320613758e-01 5.155138147e-02 -2.916736154e-01 5.155138147e-02 -2.916736154e-01 9.176578726e-01 1.320613758e-01
1.792500e+10 9.190855042e-01 1.287236513e-01 4.999362131e-02 -2.890429572e-01 4.999362131e-02 -2.890429572e-01 9.190855042e-01 1.287236513e-01
1.800000e+10 9.204870354e-01 1.253861822e-01 4.846124749e-02 -2.864131262e-01 4.846124749e-02 -2.864131262e-01 9.204870354e-01 1.253861822e-01
1.807500e+10 9.218626460e-01 1.220491542e-01 4.695407746e-02 -2.837843110e-01 4.695407746e-02 -2.837843110e-01 9.218626460e-01 1.220491542e-01
1.815000e+10 9.232125159e-01 1.187127498e-01 4.547192894e-02 -2.811566972e-01 4.547192894e-02 -2.811566972e-01 9.232125159e-01 1.187127498e-01
1.822500e+10 9.245368244e-01 1.153771480e-01 4.401461989e-02 -2.785304669e-01 4.401461989e-02 -2.785304669e-01 9.245368244e-01 1.153771480e-01
1.830000e+10 9.258357509e-01 1.120425249e-01 4.258196856e-02 -2.759057989e-01 4.258196856e-02 -2.759057989e-01 9.258357509e-01 1.120425249e-01
1.837500e+10 9.271094741e-01 1.087090530e-01 4.117379351e-02 -2.732828691e-01 4.117379351e-02 -2.732828691e-01 9.271094741e-01 1.087090530e-01
1.845000e+10 9.283581726e-01 1.053769018e-01 3.978991365e-02 -2.706618499e-01 3.978991365e-02 -2.706618499e-01 9.283581726e-01 1.053769018e-01
1.852500e+10 9.295820244e-01 1.020462377e-01 3.843014824e-02 -2.680429108e-01 3.843014824e-02 -2.680429108e-01 9.295820244e-01 1.020462377e-01
1.860000e+10 9.307812072e-01 9.871722394e-02 3.709431693e-02 -2.654262181e-01 3.709431693e-02 -2.654262181e-01 9.307812072e-01 9.871722394e-02
1.867500e+10 9.319558983e-01 9.539002080e-02 3.578223979e-02 -2.628119354e-01 3.578223979e-02 -2.628119354e-01 9.319558983e-01 9.539002080e-02
1.875000e+10 9.331062746e-01 9.206478551e-02 3.449373732e-02 -2.602002228e-01 3.449373732e-02 -2.602002228e-01 9.331062746e-01 9.206478551e-02
1.882500e+10 9.342325123e-01 8.874167236e-02 3.322863047e-02 -2.575912380e-01 3.322863047e-02 -2.575912380e-01 9.342325123e-01 8.874167236e-02
1.890000e+10 9.353347874e-01 8.542083273e-02 3.198674066e-02 -2.549851354e-01 3.198674066e-02 -2.549851354e-01 9.353347874e-01 8.542083273e-02
1.897500e+10 9.364132751e-01 8.210241514e-02 3.076788981e-02 -2.523820668e-01 3.076788981e-02 -2.523820668e-01 9.364132751e-01 8.210241514e-02
1.905000e+10 9.374681502e-01 7.878656526e-02 2.957190037e-02 -2.497821810e-01 2.957190037e-02 -2.497821810e-01 9.374681502e-01 7.878656526e-02
1.912500e+10 9.384995871e-01 7.547342599e-02 2.839859528e-02 -2.471856241e-01 2.839859528e-02 -2.471856241e-01 9.384995871e-01 7.547342599e-02
1.920000e+10 9.395077593e-01 7.216313745e-02 2.724779808e-02 -2.445925396e-01 2.724779808e-02 -2.445925396e-01 9.395077593e-01 7.216313745e-02
1.927500e+10 9.404928400e-01 6.885583709e-02 2.611933284e-02 -2.420030682e-01 2.611933284e-02 -2.420030682e-01 9.404928400e-01 6.885583709e-02
1.935000e+10 9.414550017e-01 6.555165967e-02 2.501302422e-02 -2.394173478e-01 2.501302422e-02 -2.394173478e-01 9.414550017e-01 6.555165967e-02
1.942500e+10 9.423944162e-01 6.225073730e-02 2.392869749e-02 -2.368355139e-01 2.392869749e-02 -2.368355139e-01 9.423944162e-01 6.225073730e-02
1.950000e+10 9.433112548e-01 5.895319953e-02 2.286617853e-02 -2.342576993e-01 2.286617853e-02 -2.342576993e-01 9.433112548e-01 5.895319953e-02
1.957500e+10 9.442056880e-01 5.565917334e-02 2.182529382e-02 -2.316840345e-01 2.182529382e-02 -2.316840345e-01 9.442056880e-01 5.565917334e-02
1.965000e+10 9.450778858e-01 5.236878317e-02 2.080587053e-02 -2.291146471e-01 2.080587053e-02 -2.291146471e-01 9.450778858e-01 5.236878317e-02
1.972500e+10 9.459280174e-01 4.908215101e-02 1.980773643e-02 -2.265496625e-01 1.980773643e-02 -2.265496625e-01 9.459280174e-01 4.908215101e-02
1.980000e+10 9.467562514e-01 4.579939638e-02 1.883072001e-02 -2.239892037e-01 1.883072001e-02 -2.239892037e-01 9.467562514e-01 4.579939638e-02
1.987500e+10 9.475627556e-01 4.252063641e-02 1.787465040e-02 -2.214333911e-01 1.787465040e-02 -2.214333911e-01 9.475627556e-01 4.252063641e-02
1.995000e+10 9.483476973e-01 3.924598585e-02 1.693935743e-02 -2.188823430e-01 1.693935743e-02 -2.188823430e-01 9.483476973e-01 3.924598585e-02
2.002500e+10 9.491112427e-01 3.597555708e-02 1.602467163e-02 -2.163361752e-01 1.602467163e-02 -2.163361752e-01 9.491112427e-01 3.597555708e-02
2.010000e+10 9.498535577e-01 3.270946023e-02 1.513042426e-02 -2.137950013e-01 1.513042426e-02 -2.137950013e-01 9.498535577e-01 3.270946023e-02
2.017500e+10 9.505748071e-01 2.944780311e-02 1.425644728e-02 -2.112589325e-01 1.425644728e-02 -2.112589325e-01 9.505748071e-01 2.944780311e-02
2.025000e+10 9.512751551e-01 2.619069133e-02 1.340257338e-02 -2.087280779e-01 1.340257338e-02 -2.087280779e-01 9.512751551e-01 2.619069133e-02
2.032500e+10 9.519547652e-01 2.293822826e-02 1.256863600e-02 -2.062025445e-01 1.256863600e-02 -2.062025445e-01 9.519547652e-01 2.293822826e-02
2.040000e+10 9.526138000e-01 1.969051513e-02 1.175446932e-02 -2.036824371e-01 1.175446932e-02 -2.036824371e-01 9.526138000e-01 1.969051513e-02
2.047500e+10 9.532524215e-01 1.644765102e-02 1.095990829e-02 -2.011678582e-01 1.095990829e-02 -2.011678582e-01 9.532524215e-01 1.644765102e-02
2.055000e+10 9.538707906e-01 1.320973291e-02 1.018478861e-02 -1.986589084e-01 1.018478861e-02 -1.986589084e-01 9.538707906e-01 1.320973291e-02
2.062500e+10 9.544690677e-01 9.976855678e-03 9.428946758e-03 -1.961556862e-01 9.428946758e-03 -1.961556862e-01 9.544690677e-01 9.976855678e-03
2.070000e+10 9.550474123e-01 6.749112195e-03 8.692219981e-03 -1.936582881e-01 8.692219981e-03 -1.936582881e-01 9.550474123e-01 6.749112195e-03
2.077500e+10 9.556059831e-01 3.526593300e-03 7.974446320e-03 -1.911668085e-01 7.974446320e-03 -1.911668085e-01 9.556059831e-01 3.526593300e-03
2.085000e+10 9.561449378e-01 3.093878521e-04 7.275464602e-03 -1.886813400e-01 7.275464602e-03 -1.886813400e-01 9.561449378e-01 3.093878521e-04
2.092500e+10 9.566644337e-01 -2.902417242e-03 6.595114452e-03 -1.862019731e-01 6.595114452e-03 -1.862019731e-01 9.566644337e-01 -2.902417242e-03
2.100000e+10 9.571646269e-01 -6.108736998e-03 5.933236294e-03 -1.837287965e-01 5.933236294e-03 -1.837287965e-01 9.571646269e-01 -6.108736998e-03
2.107500e+10 9.576456727e-01 -9.309488327e-03 5.289671359e-03 -1.812618970e-01 5.289671359e-03 -1.812618970e-01 9.576456727e-01 -9.309488327e-03
2.115000e+10 9.581077258e-01 -1.250459000e-02 4.664261690e-03 -1.788013596e-01 4.664261690e-03 -1.788013596e-01 9.581077258e-01 -1.250459000e-02
2.122500e+10 9.585509398e-01 -1.569396264e-02 4.056850145e-03 -1.763472674e-01 4.056850145e-03 -1.763472674e-01 9.585509398e-01 -1.569396264e-02
2.130000e+10 9.589754677e-01 -1.887752865e-02 3.467280398e-03 -1.738997017e-01 3.467280398e-03 -1.738997017e-01 9.589754677e-01 -1.887752865e-02
2.137500e+10 9.593814614e-01 -2.205521225e-02 2.895396950e-03 -1.714587421e-01 2.895396950e-03 -1.714587421e-01 9.593814614e-01 -2.205521225e-02
2.145000e+10 9.597690721e-01 -2.522693939e-02 2.341045126e-03 -1.690244666e-01 2.341045126e-03 -1.690244666e-01 9.597690721e-01 -2.522693939e-02
2.152500e+10 9.601384501e-01 -2.839263775e-02 1.804071081e-03 -1.665969511e-01 1.804071081e-03 -1.665969511e-01 9.601384501e-01 -2.839263775e-02
2.160000e+10 9.604897449e-01 -3.155223671e-02 1.284321801e-03 -1.641762703e-01 1.284321801e-03 -1.641762703e-01 9.604897449e-01 -3.155223671e-02
2.167500e+10 9.608231050e-01 -3.470566734e-02 7.816451086e-04 -1.617624968e-01 7.816451086e-04 -1.617624968e-01 9.608231050e-01 -3.470566734e-02
2.175000e+10 9.611386782e-01 -3.785286235e-02 2.958896610e-04 -1.593557020e-01 2.958896610e-04 -1.593557020e-01 9.611386782e-01 -3.785286235e-02
2.182500e+10 9.614366114e-01 -4.099375606e-02 -1.730950442e-04 -1.569559553e-01 -1.730950442e-04 -1.569559553e-01 9.614366114e-01 -4.099375606e-02
2.190000e+10 9.617170505e-01 -4.412828440e-02 -6.254586691e-04 -1.545633248e-01 -6.254586691e-04 -1.545633248e-01 9.617170505e-01 -4.412828440e-02
2.197500e+10 9.619801406e-01 -4.725638488e-02 -1.061350033e-03 -1.521778769e-01 -1.061350033e-03 -1.521778769e-01 9.619801406e-01 -4.725638488e-02
2.205000e+10 9.622260260e-01 -5.037799656e-02 -1.480917114e-03 -1.497996766e-01 -1.480917114e-03 -1.497996766e-01 9.622260260e-01 -5.037799656e-02
2.212500e+10 9.624548501e-01 -5.349306001e-02 -1.884307041e-03 -1.474287872e-01 -1.884307041e-03 -1.474287872e-01 9.624548501e-01 -5.349306001e-02
2.220000e+10 9.626667553e-01 -5.660151732e-02 -2.271666102e-03 -1.450652707e-01 -2.271666102e-03 -1.450652707e-01 9.626667553e-01 -5.660151732e-02
2.227500e+10 9.628618833e-01 -5.970331204e-02 -2.643139737e-03 -1.427091875e-01 -2.643139737e-03 -1.427091875e-01 9.628618833e-01 -5.970331204e-02
2.235000e+10 9.630403749e-01 -6.279838920e-02 -2.998872538e-03 -1.403605968e-01 -2.998872538e-03 -1.403605968e-01 9.630403749e-01 -6.279838920e-02
2.242500e+10 9.632023698e-01 -6.588669524e-02 -3.339008253e-03 -1.380195561e-01 -3.339008253e-03 -1.380195561e-01 9.632023698e-01 -6.588669524e-02
2.250000e+10 9.633480072e-01 -6.896817803e-02 -3.663689781e-03 -1.356861217e-01 -3.663689781e-03 -1.356861217e-01 9.633480072e-01 -6.896817803e-02
2.257500e+10 9.634774251e-01 -7.204278681e-02 -3.973059175e-03 -1.333603484e-01 -3.973059175e-03 -1.333603484e-01 9.634774251e-01 -7.204278681e-02
2.265000e+10 9.635907607e-01 -7.511047221e-02 -4.267257640e-03 -1.310422898e-01 -4.267257640e-03 -1.310422898e-01 9.635907607e-01 -7.511047221e-02
2.272500e+10 9.636881505e-01 -7.817118619e-02 -4.546425538e-03 -1.287319981e-01 -4.546425538e-03 -1.287319981e-01 9.636881505e-01 -7.817118619e-02
2.280000e+10 9.637697299e-01 -8.122488203e-02 -4.810702381e-03 -1.264295242e-01 -4.810702381e-03 -1.264295242e-01 9.637697299e-01 -8.122488203e-02
2.287500e+10 9.638356335e-01 -8.427151434e-02 -5.060226840e-03 -1.241349176e-01 -5.060226840e-03 -1.241349176e-01 9.638356335e-01 -8.427151434e-02
2.295000e+10 9.638859950e-01 -8.731103899e-02 -5.295136742e-03 -1.218482268e-01 -5.295136742e-03 -1.218482268e-01 9.638859950e-01 -8.731103899e-02
2.302500e+10 9.639209474e-01 -9.034341313e-02 -5.515569068e-03 -1.195694989e-01 -5.515569068e-03 -1.195694989e-01 9.639209474e-01 -9.034341313e-02
2.310000e+10 9.639406226e-01 -9.336859513e-02 -5.721659962e-03 -1.172987797e-01 -5.721659962e-03 -1.172987797e-01 9.639406226e-01 -9.336859513e-02
2.317500e+10 9.639451517e-01 -9.638654462e-02 -5.913544725e-03 -1.150361140e-01 -5.913544725e-03 -1.150361140e-01 9.639451517e-01 -9.638654462e-02
2.325000e+10 9.639346650e-01 -9.939722241e-02 -6.091357819e-03 -1.127815452e-01 -6.091357819e-03 -1.127815452e-01 9.639346650e-01 -9.939722241e-02
2.332500e+10 9.639092919e-01 -1.024005905e-01 -6.255232870e-03 -1.105351157e-01 -6.255232870e-03 -1.105351157e-01 9.639092919e-01 -1.024005905e-01
2.340000e+10 9.638691607e-01 -1.053966121e-01 -6.405302670e-03 -1.082968668e-01 -6.405302670e-03 -1.082968668e-01 9.638691607e-01 -1.053966121e-01
2.347500e+10 9.638143993e-01 -1.083852514e-01 -6.541699175e-03 -1.060668384e-01 -6.541699175e-03 -1.060668384e-01 9.638143993e-01 -1.083852514e-01
2.355000e+10 9.637451343e-01 -1.113664740e-01 -6.664553512e-03 -1.038450695e-01 -6.664553512e-03 -1.038450695e-01 9.637451343e-01 -1.113664740e-01
2.362500e+10 9.636614918e-01 -1.143402464e-01 -6.773995976e-03 -1.016315981e-01 -6.773995976e-03 -1.016315981e-01 9.636614918e-01 -1.143402464e-01
2.370000e+10 9.635635966e-01 -1.173065363e-01 -6.870156036e-03 -9.942646091e-02 -6.870156036e-03 -9.942646091e-02 9.635635966e-01 -1.173065363e-01
2.377500e+10 9.634515730e-01 -1.202653124e-01 -6.953162338e-03 -9.722969368e-02 -6.953162338e-03 -9.722969368e-02 9.634515730e-01 -1.202653124e-01
2.385000e+10 9.633255444e-01 -1.232165445e-01 -7.023142703e-03 -9.504133113e-02 -7.023142703e-03 -9.504133113e-02 9.633255444e-01 -1.232165445e-01
2.392500e+10 9.631856332e-01 -1.261602035e-01 -7.080224132e-03 -9.286140695e-02 -7.080224132e-03 -9.286140695e-02 9.631856332e-01 -1.261602035e-01
2.400000e+10 9.630319610e-01 -1.290962612e-01 -7.124532809e-03 -9.068995384e-02 -7.124532809e-03 -9.068995384e-02 9.630319610e-01 -1.290962612e-01
2.407500e+10 9.628646487e-01 -1.320246906e-01 -7.156194105e-03 -8.852700349e-02 -7.156194105e-03 -8.852700349e-02 9.628646487e-01 -1.320246906e-01
2.415000e+10 9.626838160e-01 -1.349454654e-01 -7.175332577e-03 -8.637258663e-02 -7.175332577e-03 -8.637258663e-02 9.626838160e-01 -1.349454654e-01
2.422500e+10 9.624895822e-01 -1.378585606e-01 -7.182071973e-03 -8.422673303e-02 -7.182071973e-03 -8.422673303e-02 9.624895822e-01 -1.378585606e-01
2.430000e+10 9.622820654e-01 -1.407639520e-01 -7.176535235e-03 -8.208947154e-02 -7.176535235e-03 -8.208947154e-02 9.622820654e-01 -1.407639520e-01
2.437500e+10 9.620613831e-01 -1.436616164e-01 -7.158844502e-03 -7.996083005e-02 -7.158844502e-03 -7.996083005e-02 9.620613831e-01 -1.436616164e-01
2.445000e+10 9.618276518e-01 -1.465515314e-01 -7.129121111e-03 -7.784083558e-02 -7.129121111e-03 -7.784083558e-02 9.618276518e-01 -1.465515314e-01
2.452500e+10 9.615809872e-01 -1.494336758e-01 -7.087485604e-03 -7.572951422e-02 -7.087485604e-03 -7.572951422e-02 9.615809872e-01 -1.494336758e-01
2.460000e+10 9.613215042e-01 -1.523080290e-01 -7.034057727e-03 -7.362689121e-02 -7.034057727e-03 -7.362689121e-02 9.613215042e-01 -1.523080290e-01
2.467500e+10 9.610493168e-01 -1.551745715e-01 -6.968956439e-03 -7.153299092e-02 -6.968956439e-03 -7.153299092e-02 9.610493168e-01 -1.551745715e-01
2.475000e+10 9.607645383e-01 -1.580332845e-01 -6.892299906e-03 -6.944783686e-02 -6.892299906e-03 -6.944783686e-02 9.607645383e-01 -1.580332845e-01
2.482500e+10 9.604672812e-01 -1.608841503e-01 -6.804205514e-03 -6.737145170e-02 -6.804205514e-03 -6.737145170e-02 9.604672812e-01 -1.608841503e-01
2.490000e+10 9.601576569e-01 -1.637271517e-01 -6.704789867e-03 -6.530385731e-02 -6.704789867e-03 -6.530385731e-02 9.601576569e-01 -1.637271517e-01
2.497500e+10 9.598357763e-01 -1.665622728e-01 -6.594168791e-03 -6.324507474e-02 -6.594168791e-03 -6.324507474e-02 9.598357763e-01 -1.665622728e-01
2.505000e+10 9.595017493e-01 -1.693894981e-01 -6.472457341e-03 -6.119512424e-02 -6.472457341e-03 -6.119512424e-02 9.595017493e-01 -1.693894981e-01
2.512500e+10 9.591556851e-01 -1.722088131e-01 -6.339769798e-03 -5.915402529e-02 -6.339769798e-03 -5.915402529e-02 9.591556851e-01 -1.722088131e-01
2.520000e+10 9.587976919e-01 -1.750202041e-01 -6.196219680e-03 -5.712179660e-02 -6.196219680e-03 -5.712179660e-02 9.587976919e-01 -1.750202041e-01
2.527500e+10 9.584278774e-01 -1.778236581e-01 -6.041919739e-03 -5.509845612e-02 -6.041919739e-03 -5.509845612e-02 9.584278774e-01 -1.778236581e-01
2.535000e+10 9.580463483e-01 -1.806191629e-01 -5.876981969e-03 -5.308402105e-02 -5.876981969e-03 -5.308402105e-02 9.580463483e-01 -1.806191629e-01
2.542500e+10 9.576532104e-01 -1.834067072e-01 -5.701517611e-03 -5.107850789e-02 -5.701517611e-03 -5.107850789e-02 9.576532104e-01 -1.834067072e-01
2.550000e+10 9.572485690e-01 -1.861862802e-01 -5.515637150e-03 -4.908193239e-02 -5.515637150e-03 -4.908193239e-02 9.572485690e-01 -1.861862802e-01
2.557500e+10 9.568325284e-01 -1.889578719e-01 -5.319450326e-03 -4.709430962e-02 -5.319450326e-03 -4.709430962e-02 9.568325284e-01 -1.889578719e-01
2.565000e+10 9.564051920e-01 -1.917214732e-01 -5.113066134e-03 -4.511565394e-02 -5.113066134e-03 -4.511565394e-02 9.564051920e-01 -1.917214732e-01
2.572500e+10 9.559666629e-01 -1.944770756e-01 -4.896592828e-03 -4.314597903e-02 -4.896592828e-03 -4.314597903e-02 9.559666629e-01 -1.944770756e-01
2.580000e+10 9.555170428e-01 -1.972246711e-01 -4.670137927e-03 -4.118529792e-02 -4.670137927e-03 -4.118529792e-02 9.555170428e-01 -1.972246711e-01
2.587500e+10 9.550564330e-01 -1.999642528e-01 -4.433808217e-03 -3.923362296e-02 -4.433808217e-03 -3.923362296e-02 9.550564330e-01 -1.999642528e-01
2.595000e+10 9.545849340e-01 -2.026958140e-01 -4.187709755e-03 -3.729096587e-02 -4.187709755e-03 -3.729096587e-02 9.545849340e-01 -2.026958140e-01
2.602500e+10 9.541026454e-01 -2.054193490e-01 -3.931947874e-03 -3.535733772e-02 -3.931947874e-03 -3.535733772e-02 9.541026454e-01 -2.054193490e-01
2.610000e+10 9.536096662e-01 -2.081348528e-01 -3.666627187e-03 -3.343274897e-02 -3.666627187e-03 -3.343274897e-02 9.536096662e-01 -2.081348528e-01
2.617500e+10 9.531060945e-01 -2.108423207e-01 -3.391851590e-03 -3.151720945e-02 -3.391851590e-03 -3.151720945e-02 9.531060945e-01 -2.108423207e-01
2.625000e+10 9.525920276e-01 -2.135417489e-01 -3.107724265e-03 -2.961072841e-02 -3.107724265e-03 -2.961072841e-02 9.525920276e-01 -2.135417489e-01
2.632500e+10 9.520675623e-01 -2.162331341e-01 -2.814347689e-03 -2.771331448e-02 -2.814347689e-03 -2.771331448e-02 9.520675623e-01 -2.162331341e-01
2.640000e+10 9.515327943e-01 -2.189164738e-01 -2.511823631e-03 -2.582497574e-02 -2.511823631e-03 -2.582497574e-02 9.515327943e-01 -2.189164738e-01
2.647500e+10 9.509878188e-01 -2.215917659e-01 -2.200253161e-03 -2.394571967e-02 -2.200253161e-03 -2.394571967e-02 9.509878188e-01 -2.215917659e-01
2.655000e+10 9.504327302e-01 -2.242590089e-01 -1.879736655e-03 -2.207555320e-02 -1.879736655e-03 -2.207555320e-02 9.504327302e-01 -2.242590089e-01
2.662500e+10 9.498676221e-01 -2.269182019e-01 -1.550373794e-03 -2.021448271e-02 -1.550373794e-03 -2.021448271e-02 9.498676221e-01 -2.269182019e-01
2.670000e+10 9.492925874e-01 -2.295693448e-01 -1.212263571e-03 -1.836251405e-02 -1.212263571e-03 -1.836251405e-02 9.492925874e-01 -2.295693448e-01
2.677500e+10 9.487077183e-01 -2.322124378e-01 -8.655042983e-04 -1.651965251e-02 -8.655042983e-04 -1.651965251e-02 9.487077183e-01 -2.322124378e-01
2.685000e+10 9.481131063e-01 -2.348474816e-01 -5.101936054e-04 -1.468590287e-02 -5.101936054e-04 -1.468590287e-02 9.481131063e-01 -2.348474816e-01
2.692500e+10 9.475088419e-01 -2.374744777e-01 -1.464284476e-04 -1.286126941e-02 -1.464284476e-04 -1.286126941e-02 9.475088419e-01 -2.374744777e-01
2.700000e+10 9.468950153e-01 -2.400934280e-01 2.256948912e-04 -1.104575590e-02 2.256948912e-04 -1.104575590e-02 9.468950153e-01 -2.400934280e-01
2.707500e+10 9.462717157e-01 -2.427043349e-01 6.060807944e-04 -9.239365585e-03 6.060807944e-04 -9.239365585e-03 9.462717157e-01 -2.427043349e-01
2.715000e+10 9.456390316e-01 -2.453072014e-01 9.946343085e-04 -7.442101269e-03 9.946343085e-04 -7.442101269e-03 9.456390316e-01 -2.453072014e-01
2.722500e+10 9.449970509e-01 -2.479020309e-01 1.391261138e-03 -5.653965251e-03 1.391261138e-03 -5.653965251e-03 9.449970509e-01 -2.479020309e-01
2.730000e+10 9.443458607e-01 -2.504888274e-01 1.795867644e-03 -3.874959370e-03 1.795867644e-03 -3.874959370e-03 9.443458607e-01 -2.504888274e-01
2.737500e+10 9.436855474e-01 -2.530675954e-01 2.208360836e-03 -2.105085004e-03 2.208360836e-03 -2.105085004e-03 9.436855474e-01 -2.530675954e-01
2.745000e+10 9.430161968e-01 -2.556383397e-01 2.628648370e-03 -3.443430774e-04 2.628648370e-03 -3.443430774e-04 9.430161968e-01 -2.556383397e-01
2.752500e+10 9.423378939e-01 -2.582010658e-01 3.056638545e-03 1.407265926e-03 3.056638545e-03 1.407265926e-03 9.423378939e-01 -2.582010658e-01
2.760000e+10 9.416507230e-01 -2.607557797e-01 3.492240297e-03 3.149741960e-03 3.492240297e-03 3.149741960e-03 9.416507230e-01 -2.607557797e-01
2.767500e+10 9.409547677e-01 -2.633024875e-01 3.935363197e-03 4.883085403e-03 3.935363197e-03 4.883085403e-03 9.409547677e-01 -2.633024875e-01
2.775000e+10 9.402501111e-01 -2.658411962e-01 4.385917442e-03 6.607297055e-03 4.385917442e-03 6.607297055e-03 9.402501111e-01 -2.658411962e-01
2.782500e+10 9.395368354e-01 -2.683719130e-01 4.843813859e-03 8.322378126e-03 4.843813859e-03 8.322378126e-03 9.395368354e-01 -2.683719130e-01
2.790000e+10 9.388150222e-01 -2.708946455e-01 5.308963893e-03 1.002833023e-02 5.308963893e-03 1.002833023e-02 9.388150222e-01 -2.708946455e-01
2.797500e+10 9.380847523e-01 -2.734094019e-01 5.781279606e-03 1.172515538e-02 5.781279606e-03 1.172515538e-02 9.380847523e-01 -2.734094019e-01
2.805000e+10 9.373461061e-01 -2.759161907e-01 6.260673673e-03 1.341285596e-02 6.260673673e-03 1.341285596e-02 9.373461061e-01 -2.759161907e-01
2.812500e+10 9.365991632e-01 -2.784150208e-01 6.747059378e-03 1.509143477e-02 6.747059378e-03 1.509143477e-02 9.365991632e-01 -2.784150208e-01
2.820000e+10 9.358440024e-01 -2.809059017e-01 7.240350608e-03 1.676089496e-02 7.240350608e-03 1.676089496e-02 9.358440024e-01 -2.809059017e-01
2.827500e+10 9.350807020e-01 -2.833888430e-01 7.740461852e-03 1.842124003e-02 7.740461852e-03 1.842124003e-02 9.350807020e-01 -2.833888430e-01
2.835000e+10 9.343093396e-01 -2.858638549e-01 8.247308193e-03 2.007247389e-02 8.247308193e-03 2.007247389e-02 9.343093396e-01 -2.858638549e-01
2.842500e+10 9.335299921e-01 -2.883309480e-01 8.760805307e-03 2.171460075e-02 8.760805307e-03 2.171460075e-02 9.335299921e-01 -2.883309480e-01
2.850000e+10 9.327427359e-01 -2.907901332e-01 9.280869457e-03 2.334762519e-02 9.280869457e-03 2.334762519e-02 9.327427359e-01 -2.907901332e-01
2.857500e+10 9.319476465e-01 -2.932414218e-01 9.807417489e-03 2.497155214e-02 9.807417489e-03 2.497155214e-02 9.319476465e-01 -2.932414218e-01
2.865000e+10 9.311447990e-01 -2.956848254e-01 1.034036683e-02 2.658638684e-02 1.034036683e-02 2.658638684e-02 9.311447990e-01 -2.956848254e-01
2.872500e+10 9.303342677e-01 -2.981203561e-01 1.087963548e-02 2.819213487e-02 1.087963548e-02 2.819213487e-02 9.303342677e-01 -2.981203561e-01
2.880000e+10 9.295161263e-01 -3.005480263e-01 1.142514200e-02 2.978880212e-02 1.142514200e-02 2.978880212e-02 9.295161263e-01 -3.005480263e-01
2.887500e+10 9.286904480e-01 -3.029678487e-01 1.197680555e-02 3.137639481e-02 1.197680555e-02 3.137639481e-02 9.286904480e-01 -3.029678487e-01
2.895000e+10 9.278573052e-01 -3.053798364e-01 1.253454582e-02 3.295491944e-02 1.253454582e-02 3.295491944e-02 9.278573052e-01 -3.053798364e-01
2.902500e+10 9.270167697e-01 -3.077840028e-01 1.309828306e-02 3.452438284e-02 1.309828306e-02 3.452438284e-02 9.270167697e-01 -3.077840028e-01
2.910000e+10 9.261689128e-01 -3.101803617e-01 1.366793810e-02 3.608479210e-02 1.366793810e-02 3.608479210e-02 9.261689128e-01 -3.101803617e-01
2.917500e+10 9.253138050e-01 -3.125689271e-01 1.424343229e-02 3.763615464e-02 1.424343229e-02 3.763615464e-02 9.253138050e-01 -3.125689271e-01
2.925000e+10 9.244515163e-01 -3.149497134e-01 1.482468756e-02 3.917847813e-02 1.482468756e-02 3.917847813e-02 9.244515163e-01 -3.149497134e-01
2.932500e+10 9.235821161e-01 -3.173227354e-01 1.541162634e-02 4.071177053e-02 1.541162634e-02 4.071177053e-02 9.235821161e-01 -3.173227354e-01
2.940000e+10 9.227056731e-01 -3.196880080e-01 1.600417163e-02 4.223604007e-02 1.600417163e-02 4.223604007e-02 9.227056731e-01 -3.196880080e-01
2.947500e+10 9.218222555e-01 -3.220455467e-01 1.660224696e-02 4.375129524e-02 1.660224696e-02 4.375129524e-02 9.218222555e-01 -3.220455467e-01
2.955000e+10 9.209319308e-01 -3.243953669e-01 1.720577638e-02 4.525754479e-02 1.720577638e-02 4.525754479e-02 9.209319308e-01 -3.243953669e-01
2.962500e+10 9.200347660e-01 -3.267374848e-01 1.781468447e-02 4.675479773e-02 1.781468447e-02 4.675479773e-02 9.200347660e-01 -3.267374848e-01
2.970000e+10 9.191308274e-01 -3.290719163e-01 1.842889633e-02 4.824306332e-02 1.842889633e-02 4.824306332e-02 9.191308274e-01 -3.290719163e-01
2.977500e+10 9.182201808e-01 -3.313986781e-01 1.904833758e-02 4.972235106e-02 1.904833758e-02 4.972235106e-02 9.182201808e-01 -3.313986781e-01
2.985000e+10 9.173028914e-01 -3.337177869e-01 1.967293436e-02 5.119267068e-02 1.967293436e-02 5.119267068e-02 9.173028914e-01 -3.337177869e-01
2.992500e+10 9.163790236e-01 -3.360292598e-01 2.030261330e-02 5.265403216e-02 2.030261330e-02 5.265403216e-02 9.163790236e-01 -3.360292598e-01
3.000000e+10 9.154486417e-01 -3.383331140e-01 2.093730156e-02 5.410644569e-02 2.093730156e-02 5.410644569e-02 9.154486417e-01 -3.383331140e-01
